lattice_vector 8.648827 0.0 -1.871523
lattice_vector 0.485958 10.970486 2.769099
lattice_vector 0.0 0.0 11.675
atom 8.56946 3.59722 1.98702 H
atom 0.56532 7.37326 10.58556 H
atom 7.91168 4.19182 4.06208 H
atom 1.22310 6.77866 8.51050 H
atom 0.71380 4.00862 7.75019 H
atom 8.42099 6.96187 4.82239 H
atom 2.86088 3.35477 7.43417 H
atom 6.27391 7.61571 5.13841 H
atom 8.13834 0.54194 3.10347 H
atom 0.99645 10.42854 9.46911 H
atom 0.61107 10.67099 5.74809 H
atom 8.52371 0.29949 6.82448 H
atom 7.85242 10.80044 2.02249 H
atom 1.28237 0.17004 10.55009 H
atom 5.29661 0.72405 -0.56299 H
atom 3.83817 10.24643 13.13556 H
atom 3.52814 1.72456 0.85938 H
atom 5.60665 9.24593 11.71320 H
atom 6.39676 1.62253 4.50247 H
atom 2.73802 9.34795 8.07011 H
atom 5.58219 4.61309 6.09271 H
atom 3.55260 6.35740 6.47987 H
atom 7.15786 4.70744 7.77873 H
atom 1.97693 6.26305 4.79385 H
atom 7.56728 2.86001 9.08462 H
atom 1.56751 8.11048 3.48796 H
atom 6.46702 0.88532 8.65940 H
atom 2.66776 10.08517 3.91318 H
atom 4.87564 0.78768 6.98525 H
atom 4.25914 10.18281 5.58732 H
atom 2.17194 3.05089 10.70842 H
atom 6.96284 7.91959 1.86416 H
atom 3.23081 4.71621 9.51343 H
atom 5.90397 6.25427 3.05914 H
atom 3.61859 6.77318 10.47864 H
atom 5.51620 4.19731 2.09393 H
atom 2.95109 7.16812 12.64242 H
atom 6.18369 3.80237 -0.06985 H
atom 1.92884 5.50938 2.18423 H
atom 7.20595 5.46111 10.38835 H
atom 0.52684 3.53688 4.56150 C
atom 8.60794 7.43360 8.01108 C
atom 8.77944 3.88575 3.92721 C
atom 0.35535 7.08474 8.64537 C
atom 1.01130 3.79359 6.89628 C
atom 8.12348 7.17689 5.67629 C
atom 2.28489 3.39427 6.70520 C
atom 6.84990 7.57622 5.86737 C
atom 7.54807 0.57156 2.38551 C
atom 1.58672 10.39892 10.18706 C
atom 7.93222 0.08667 1.19581 C
atom 1.20257 10.88382 11.37676 C
atom 7.07640 0.15468 0.07605 C
atom 2.05838 10.81580 12.49653 C
atom 5.84666 0.68456 0.18677 C
atom 3.28813 10.28593 12.38581 C
atom 4.09251 1.69604 1.59724 C
atom 5.04228 9.27445 10.97534 C
atom 5.81052 1.62583 3.78025 C
atom 3.32427 9.34466 8.79233 C
atom 2.30749 2.67460 3.03495 C
atom 6.82729 8.29588 9.53763 C
atom 4.08898 2.61207 5.22959 C
atom 5.04581 8.35841 7.34299 C
atom 1.85315 3.07832 4.29679 C
atom 7.28163 7.89217 8.27579 C
atom 2.77293 3.02895 5.41811 C
atom 6.36186 7.94153 7.15447 C
atom 4.51662 2.13266 3.97004 C
atom 4.61817 8.83782 8.60254 C
atom 6.24958 1.13106 2.57024 C
atom 2.88520 9.83943 10.00233 C
atom 5.36820 1.18810 1.43912 C
atom 3.76659 9.78238 11.13345 C
atom 3.61451 2.17106 2.83034 C
atom 5.52027 8.79943 9.74223 C
atom 5.07003 2.67680 6.35470 C
atom 4.06476 8.29369 6.21788 C
atom 5.75541 3.85722 6.60789 C
atom 3.37937 7.11326 5.96469 C
atom 6.69465 3.91537 7.62124 C
atom 2.44013 7.05512 4.95134 C
atom 6.94679 2.81283 8.39394 C
atom 2.18799 8.15765 4.17863 C
atom 6.28337 1.64009 8.14735 C
atom 2.85141 9.33040 4.42522 C
atom 5.33630 1.58085 7.13658 C
atom 3.79849 9.38964 5.43600 C
atom 1.98777 4.10625 0.73793 C
atom 7.14702 6.86423 11.83464 C
atom 2.34677 3.87368 11.10448 C
atom 6.78801 7.09681 1.46810 C
atom 2.96614 4.87199 10.39024 C
atom 6.16864 6.09849 2.18233 C
atom 3.19705 6.10178 10.96486 C
atom 5.93773 4.86870 1.60771 C
atom 2.80432 6.33436 12.25727 C
atom 6.33047 4.63613 0.31531 C
atom 2.19841 5.34701 1.30930 C
atom 6.93638 5.62347 11.26327 C
atom 1.13350 2.82282 1.66180 S
atom 8.00129 8.14767 10.91078 S
atom 1.16992 1.59511 0.81867 O
atom 7.96486 9.37538 11.75390 O
