lattice_vector 13.987999 0.0 -2.294885
lattice_vector 0.0 7.407 0.0
lattice_vector 0.0 0.0 7.026
atom 3.01441 4.74715 4.66535 H
atom 10.97359 1.04365 3.57877 H
atom 10.97359 2.65985 0.06577 H
atom 3.01441 6.36335 1.15235 H
atom 3.29417 2.72133 -0.23341 H
atom 10.69382 6.42483 1.45152 H
atom 10.69382 4.68567 4.96452 H
atom 3.29417 0.98217 3.27959 H
atom 1.28130 2.69763 5.32347 H
atom 12.70670 6.40113 2.92065 H
atom 12.70670 4.70937 -0.59235 H
atom 1.28130 1.00587 1.81047 H
atom 0.69940 4.76270 3.18045 H
atom 13.28860 1.05920 -1.96233 H
atom 13.28860 2.64430 1.55067 H
atom 0.69940 6.34780 6.69345 H
atom 5.39517 4.46790 5.57176 H
atom 8.59283 0.76440 2.67236 H
atom 8.59283 2.93910 -0.84064 H
atom 5.39517 6.64260 2.05876 H
atom 6.42888 4.75233 4.38269 H
atom 7.55911 1.04883 3.86142 H
atom 7.55911 2.65467 0.34842 H
atom 6.42888 6.35817 0.86969 H
atom 6.17850 3.25315 4.88327 H
atom 7.80950 6.95665 3.36084 H
atom 7.80950 4.15385 -0.15216 H
atom 6.17850 0.45035 1.37027 H
atom 4.65129 3.97704 3.73003 C
atom 9.33671 0.27354 4.51408 C
atom 9.33671 3.42996 1.00108 C
atom 4.65129 7.13346 0.21703 C
atom 3.35670 4.34776 3.87357 C
atom 10.63130 0.64426 4.37055 C
atom 10.63130 3.05924 0.85755 C
atom 3.35670 6.76274 0.36057 C
atom 2.54078 4.07711 2.70305 C
atom 11.44722 0.37361 -1.48494 C
atom 11.44722 3.32989 2.02806 C
atom 2.54078 7.03339 6.21605 C
atom 3.31194 3.45640 1.65318 C
atom 10.67606 7.15990 -0.43506 C
atom 10.67606 3.95060 3.07794 C
atom 3.31194 0.24710 5.16618 C
atom 2.76347 3.12857 0.44096 C
atom 11.22453 6.83207 0.77715 C
atom 11.22453 4.27843 4.29015 C
atom 2.76347 0.57493 3.95396 C
atom 1.37978 3.40855 0.20475 C
atom 12.60822 7.11205 1.01337 C
atom 12.60822 3.99845 4.52637 C
atom 1.37978 0.29495 3.71775 C
atom 0.76584 3.10390 6.01065 C
atom 13.22216 6.80740 2.23346 C
atom 13.22216 4.30310 -1.27954 C
atom 0.76584 0.59960 2.49765 C
atom 0.59127 4.02578 1.25395 C
atom 13.39673 0.32228 -0.03584 C
atom 13.39673 3.38122 3.47716 C
atom 0.59127 7.08472 4.76695 C
atom 1.21038 4.35161 2.49231 C
atom 12.77762 0.64811 -1.27420 C
atom 12.77762 3.05539 2.23880 C
atom 1.21038 6.75889 6.00531 C
atom 5.75942 4.12570 4.72860 C
atom 8.22858 0.42220 3.51552 C
atom 8.22858 3.28130 0.00252 C
atom 5.75942 6.98480 1.21560 C
atom 4.97875 3.24582 2.15989 S
atom 9.00925 6.94932 -0.94177 S
atom 9.00925 4.16118 2.57123 S
atom 4.97875 0.45768 5.67289 S
