lattice_vector 7.0478 0.0 0.0
lattice_vector -0.905388803889738 8.501424666712698 0.0
lattice_vector -3.1932986922208833 -1.0110458745951239 11.469406346961666
atom -0.34384 -0.40965 10.57823 H
atom 3.29295 7.90003 0.89117 H
atom -1.19065 6.36846 9.02642 H
atom 4.13977 1.12192 2.44298 H
atom 0.11950 6.56700 7.12135 H
atom 2.82961 0.92338 4.34805 H
atom 2.27545 -0.01267 6.76924 H
atom 0.67366 7.50305 4.70016 H
atom 2.21688 1.71065 8.32105 H
atom 0.73224 5.77973 3.14835 H
atom -2.20493 0.94030 8.65023 H
atom 5.15404 6.55007 2.81918 H
atom 4.84290 0.31082 6.41713 H
atom -1.89379 7.17956 5.05227 H
atom -1.02161 1.55915 4.86073 H
atom 3.97073 5.93123 6.60867 H
atom 0.16126 3.43708 5.53628 H
atom 2.78785 4.05330 5.93312 H
atom 0.16123 4.06656 7.76938 H
atom 2.78788 3.42382 3.70003 H
atom 3.83546 3.64307 8.37840 H
atom -0.88634 3.84731 3.09101 H
atom 2.14084 5.10382 8.73281 H
atom 0.80827 2.38655 2.73660 H
atom 2.01695 6.28396 10.74683 H
atom 0.93216 1.20642 0.72257 H
atom -0.17917 7.12534 0.79712 H
atom 3.12828 0.36504 10.67228 H
atom 0.93117 0.82143 9.60333 C
atom 2.01794 6.66895 1.86607 C
atom 0.18190 -0.33041 9.81437 C
atom 2.76721 7.82079 1.65504 C
atom -0.68866 7.13837 8.88535 C
atom 3.63777 0.35201 2.58406 C
atom 0.09576 7.25767 7.74414 C
atom 2.85335 0.23271 3.72526 C
atom 1.75051 -0.09276 7.53311 C
atom 1.19860 7.58314 3.93630 C
atom 1.71568 0.93988 8.46213 C
atom 1.23343 6.55050 3.00728 C
atom -1.02239 2.56553 8.43116 C
atom 3.97151 4.92484 3.03825 C
atom -1.73120 1.44078 8.02629 C
atom 4.68031 6.04960 3.44312 C
atom -1.73012 1.06399 6.68781 C
atom 4.67923 6.42639 4.78160 C
atom -1.02127 1.81185 5.75535 C
atom 3.97038 5.67853 5.71406 C
atom -0.31247 2.93660 6.16022 C
atom 3.26158 4.55378 5.30919 C
atom -0.31354 3.31339 7.49870 C
atom 3.26266 4.17698 3.97071 C
atom 0.94892 1.92388 10.64705 C
atom 2.00019 5.56650 0.82236 C
atom -0.09347 2.89443 10.81450 C
atom 3.04259 4.59595 0.65490 C
atom -1.09776 3.10133 9.84649 C
atom 4.04687 4.38905 1.62292 C
atom -2.17845 3.95334 10.09537 C
atom 5.12757 3.53704 1.37403 C
atom 3.82209 4.13450 9.16864 C
atom -0.87298 3.35588 2.30076 C
atom 2.79949 4.99324 9.37968 C
atom 0.14962 2.49714 2.08973 C
atom 2.73629 5.71692 10.58282 C
atom 0.21282 1.77346 0.88659 C
atom -0.13942 6.60213 0.02982 C
atom 3.08853 0.88825 11.43959 C
atom -2.22198 4.67848 11.33980 C
atom 5.17109 2.81190 0.12960 C
