lattice_vector 6.7392 0.0 0.0
lattice_vector -0.8884141163962416 8.009982095347523 0.0
lattice_vector -2.8949758929226075 -0.37564721932946143 11.086189271161079
atom -0.25250 -0.01483 10.24807 H
atom 3.20831 7.64917 0.83812 H
atom -1.17061 6.30109 8.66275 H
atom 4.12642 1.33325 2.42344 H
atom 0.13275 6.47879 6.75149 H
atom 2.82306 1.15554 4.33470 H
atom 2.35363 0.33977 6.42556 H
atom 0.60218 7.29457 4.66063 H
atom 2.38274 2.03303 8.01088 H
atom 0.57307 5.60131 3.07531 H
atom -2.05881 1.22146 8.37007 H
atom 5.01462 6.41287 2.71612 H
atom 4.66619 0.51375 6.16060 H
atom -1.71038 7.12058 4.92559 H
atom -0.90547 1.70968 4.55199 H
atom 3.86128 5.92465 6.53420 H
atom 0.27646 3.61416 5.15175 H
atom 2.67935 4.02018 5.93444 H
atom 0.29066 4.32187 7.36123 H
atom 2.66515 3.31247 3.72496 H
atom 3.68448 3.96268 7.96210 H
atom -0.72867 3.67165 3.12409 H
atom 1.91379 5.28126 8.36010 H
atom 1.04202 2.35308 2.72609 H
atom 1.82438 6.58150 10.31570 H
atom 1.13143 1.05284 0.77049 H
atom -0.39623 6.74170 0.81262 H
atom 3.35204 0.89263 10.27357 H
atom 1.06817 1.17678 9.28690 C
atom 1.88764 6.45756 1.79929 C
atom 0.26942 0.05598 9.48202 C
atom 2.68639 7.57836 1.60417 C
atom -0.63622 7.05125 8.53193 C
atom 3.59203 0.58309 2.55426 C
atom 0.14463 7.15734 7.38673 C
atom 2.81118 0.47700 3.69946 C
atom 1.83112 0.26816 7.19161 C
atom 1.12469 7.36618 3.89458 C
atom 1.84902 1.28287 8.14170 C
atom 1.10679 6.35147 2.94449 C
atom -0.88233 2.84196 8.08405 C
atom 3.83814 4.79237 3.00214 C
atom -1.59061 1.70069 7.72486 C
atom 4.54642 5.93364 3.36133 C
atom -1.59935 1.27696 6.40117 C
atom 4.55516 6.35737 4.68502 C
atom -0.89973 1.99370 5.43667 C
atom 3.85554 5.64064 5.64952 C
atom -0.19174 3.13493 5.79697 C
atom 3.14755 4.49941 5.28922 C
atom -0.18299 3.55866 7.12066 C
atom 3.13880 4.07568 3.96553 C
atom 1.10769 2.29383 10.31348 C
atom 1.84812 5.34051 0.77271 C
atom 0.04912 3.20774 10.47977 C
atom 2.90669 4.42659 0.60641 C
atom -0.96830 3.37540 9.50308 C
atom 3.92411 4.25893 1.58311 C
atom -2.06353 4.21124 9.75141 C
atom 5.01934 3.42309 1.33478 C
atom 3.63123 4.41258 8.77361 C
atom -0.67542 3.22175 2.31258 C
atom 2.59593 5.22228 8.98979 C
atom 0.35988 2.41206 2.09640 C
atom 2.53176 5.99105 10.17712 C
atom 0.42405 1.64328 0.90907 C
atom -0.33080 6.24677 0.02993 C
atom 3.28661 1.38756 11.05626 C
atom -2.10713 5.00771 10.94872 C
atom 5.06294 2.62662 0.13747 C
