lattice_vector 6.390673 0.0 -1.049033
lattice_vector 0.0 28.7451 0.0
lattice_vector 0.0 0.0 7.0792
atom 4.00056 6.69473 4.84384 H
atom 5.58545 21.06728 4.20141 H
atom 2.39011 22.05037 1.18632 H
atom 0.80522 7.67782 1.82876 H
atom 4.44791 7.66632 6.20041 H
atom 5.13810 22.03887 2.84484 H
atom 1.94276 21.07878 -0.17024 H
atom 1.25257 6.70623 3.18533 H
atom 5.39373 8.03138 3.46832 H
atom 4.19228 22.40393 5.57693 H
atom 0.99694 20.71372 2.56184 H
atom 2.19839 6.34117 0.45324 H
atom 6.28842 7.35875 4.66651 H
atom 3.29759 21.73130 4.37874 H
atom 0.10225 21.38635 1.36366 H
atom 3.09309 7.01380 1.65142 H
atom 1.84243 18.90968 4.76981 C
atom 1.35291 4.53713 5.32447 C
atom 4.54824 9.83542 1.26036 C
atom 5.03777 24.20797 0.70569 C
atom 1.89803 16.33239 4.71325 C
atom 1.29731 1.95984 5.38103 C
atom 4.49264 12.41271 1.31691 C
atom 5.09337 26.78526 0.64914 C
atom 3.19214 16.70751 4.78682 C
atom 0.00320 2.33496 5.30746 C
atom 3.19853 12.03759 1.24334 C
atom 6.38748 26.41014 0.72271 C
atom 3.23432 14.14661 4.78698 C
atom 6.35169 28.51916 4.25827 C
atom 3.15635 14.59849 1.24319 C
atom 0.03898 0.22594 1.77190 C
atom 3.59411 12.84877 4.80083 C
atom 5.99190 27.22132 4.24442 C
atom 2.79656 15.89633 1.22933 C
atom 0.39878 1.52378 1.78575 C
atom 3.58581 10.24562 4.80786 C
atom 6.00020 24.61817 4.23739 C
atom 2.80487 18.49948 1.22231 C
atom 0.39047 4.12693 1.79278 C
atom 4.88247 10.59688 4.88243 C
atom 4.70354 24.96943 4.16282 C
atom 1.50820 18.14822 1.14774 C
atom 1.68714 3.77567 1.86734 C
atom 4.32521 7.60423 5.16009 C
atom 5.26080 21.97678 3.88516 C
atom 2.06547 21.14087 0.87008 C
atom 1.12987 6.76832 2.14500 C
atom 5.58609 7.98251 4.43633 C
atom 3.99992 22.35506 4.60892 C
atom 0.80459 20.76259 1.59384 C
atom 2.39075 6.39004 1.42125 C
atom 3.54817 18.40451 4.83223 S
atom 6.03784 4.03196 4.21302 S
atom 2.84251 10.34059 1.19793 S
atom 0.35283 24.71314 1.81715 S
atom 0.68553 17.56699 4.66579 S
atom 2.50981 3.19444 5.42849 S
atom 5.70515 11.17811 1.36438 S
atom 3.88086 25.55066 0.60167 S
atom 4.41148 15.46279 4.87557 S
atom 5.17453 1.09024 4.16968 S
atom 1.97919 13.28231 1.15460 S
atom 1.21615 27.65486 1.86049 S
atom 1.53210 14.62959 4.69899 S
atom 1.66324 0.25704 5.39529 S
atom 4.85857 14.11551 1.33118 S
atom 4.72744 28.48806 0.63487 S
atom 5.26847 12.31719 4.87754 S
atom 4.31754 26.68974 4.16771 S
atom 1.12220 16.42791 1.15263 S
atom 2.07313 2.05536 1.86246 S
atom 2.40264 11.55346 4.73880 S
atom 0.79270 25.92601 5.35548 S
atom 3.98804 17.19164 1.29136 S
atom 5.59797 2.81909 0.67469 S
atom 6.29226 9.55961 4.96441 S
atom 3.29375 23.93216 4.08084 S
atom 0.09842 19.18549 1.06576 S
atom 3.09692 4.81294 1.94932 S
atom 2.89472 8.63526 4.75289 S
atom 0.30062 23.00781 5.34139 S
atom 3.49595 20.10984 1.27728 S
atom 6.09006 5.73729 0.68877 S
atom 1.49733 20.07443 4.78965 O
atom 1.69800 5.70188 5.30464 O
atom 4.89334 8.67067 1.24052 O
atom 4.69267 23.04322 0.72553 O
