lattice_vector 6.4948 0.0 0.0
lattice_vector 0.0 28.7194 0.0
lattice_vector -1.1860475503989043 0.0 7.051246790333803
atom 3.21331 6.70311 5.41536 H
atom 4.74981 21.06281 5.16151 H
atom 2.09544 22.01629 1.63589 H
atom 0.55894 7.65659 1.88973 H
atom 3.53579 7.70829 6.89612 H
atom 4.42734 22.06799 3.68075 H
atom 1.77297 21.01111 0.15513 H
atom 0.88141 6.65141 3.37050 H
atom 4.55797 7.99548 4.29421 H
atom 3.40516 22.35518 6.28266 H
atom 0.75078 20.72392 2.75704 H
atom 1.90359 6.36422 0.76859 H
atom 5.39003 7.38950 5.71856 H
atom 2.57310 21.74920 4.85831 H
atom -0.08128 21.32990 1.33269 H
atom 2.73565 6.97020 2.19294 H
atom 1.02779 18.88789 5.04869 C
atom 0.44054 4.52819 5.52818 C
atom 4.28097 9.83151 2.00255 C
atom 4.86821 24.19121 1.52307 C
atom 1.09572 16.31808 5.00780 C
atom 0.37261 1.95838 5.56907 C
atom 4.21304 12.40132 2.04345 C
atom 4.93614 26.76102 1.48217 C
atom 2.35467 16.69258 5.29196 C
atom -0.88634 2.33288 5.28491 C
atom 2.95408 12.02682 1.75929 C
atom 6.19510 26.38652 1.76634 C
atom 2.39695 14.13224 5.29549 C
atom 5.56618 28.49194 5.28138 C
atom 2.91181 14.58716 1.75576 C
atom -0.25743 0.22746 1.76986 C
atom 2.74678 12.83499 5.37023 C
atom 5.21634 27.19469 5.20664 C
atom 2.56197 15.88441 1.68102 C
atom 0.09241 1.52471 1.84461 C
atom 2.73933 10.23847 5.38363 C
atom 5.22379 24.59817 5.19324 C
atom 2.56942 18.48093 1.66762 C
atom 0.08496 4.12123 1.85800 C
atom 4.00479 10.59200 5.66779 C
atom 3.95834 24.95170 4.90908 C
atom 1.30397 18.12740 1.38345 C
atom 1.35041 3.76770 2.14217 C
atom 3.42092 7.59370 5.80670 C
atom 4.54221 21.95340 4.77017 C
atom 1.88783 21.12570 1.24455 C
atom 0.76654 6.76600 2.28108 C
atom 4.76562 7.98687 5.34555 C
atom 3.19751 22.34657 5.23132 C
atom 0.54313 20.73253 1.70570 C
atom 2.11125 6.37283 1.81993 C
atom 2.69891 18.38271 5.39265 S
atom 5.26422 4.02301 5.18422 S
atom 2.60984 10.33669 1.65859 S
atom 0.04454 24.69639 1.86703 S
atom -0.09165 17.54928 4.76178 S
atom 1.55998 3.18958 5.81509 S
atom 5.40040 11.17012 2.28947 S
atom 3.74877 25.52982 1.23615 S
atom 3.54186 15.44615 5.57225 S
atom 4.42126 1.08645 5.00462 S
atom 1.76689 13.27324 1.47900 S
atom 0.88749 27.63295 2.04662 S
atom 0.73484 14.61588 4.93305 S
atom 0.73349 0.25618 5.64382 S
atom 4.57391 14.10352 2.11819 S
atom 4.57526 28.46322 1.40743 S
atom 4.38569 12.30598 5.71496 S
atom 3.57743 26.66568 4.86191 S
atom 0.92306 16.41342 1.33628 S
atom 1.73132 2.05372 2.18934 S
atom 1.58831 11.54146 5.11187 S
atom -0.11998 25.90117 5.46500 S
atom 3.72044 17.17793 1.93937 S
atom 5.42874 2.81823 1.58625 S
atom 5.37522 9.55121 5.97459 S
atom 2.58791 23.91091 4.60228 S
atom -0.06646 19.16819 1.07665 S
atom 2.72084 4.80849 2.44897 S
atom 2.06490 8.62961 5.23661 S
atom -0.59657 22.98931 5.34026 S
atom 3.24385 20.08979 1.81464 S
atom 5.90532 5.73009 1.71099 S
atom 0.69062 20.05074 5.01062 O
atom 0.77771 5.69104 5.56625 O
atom 4.61814 8.66866 2.04063 O
atom 4.53104 23.02836 1.48499 O
