lattice_vector 5.930478 0.0 -2.224632
lattice_vector 0.0 19.247 0.0
lattice_vector 0.0 0.0 8.4472
atom 0.07472 11.83306 6.63681 H
atom 5.85575 2.20956 3.80936 H
atom 5.85575 7.41394 -0.41424 H
atom 0.07472 17.03745 2.41321 H
atom 0.02313 10.62819 7.56931 H
atom 5.90735 1.00469 2.87686 H
atom 5.90735 8.61881 -1.34674 H
atom 0.02313 18.24231 3.34571 H
atom 0.47622 9.03262 5.18196 H
atom 5.45426 18.65612 5.26421 H
atom 5.45426 10.21438 1.04061 H
atom 0.47622 0.59088 0.95836 H
atom 1.68188 8.47060 5.92497 H
atom 4.24859 18.09410 4.52120 H
atom 4.24859 10.77639 0.29760 H
atom 1.68188 1.15290 1.70137 H
atom 2.64203 13.33817 0.96192 H
atom 3.28845 3.71467 1.03705 H
atom 3.28845 5.90883 5.26065 H
atom 2.64203 15.53233 5.18552 H
atom 3.60929 13.57683 2.21757 H
atom 2.32119 3.95333 -0.21860 H
atom 2.32119 5.67017 4.00500 H
atom 3.60929 15.29367 6.44116 H
atom 2.30992 15.34948 2.94404 H
atom 3.62056 5.72598 -0.94507 H
atom 3.62056 3.89752 3.27853 H
atom 2.30992 13.52102 7.16764 H
atom 2.72150 15.60739 1.41782 H
atom 3.20898 5.98389 0.58114 H
atom 3.20898 3.63961 4.80475 H
atom 2.72150 13.26311 5.64142 H
atom 5.00651 14.40253 0.05384 H
atom 0.92397 4.77903 1.94513 H
atom 0.92397 4.84447 6.16873 H
atom 5.00651 14.46797 4.27744 H
atom 0.13521 14.64504 3.45318 H
atom 5.79526 5.02154 -1.45421 H
atom 5.79526 4.60196 2.76939 H
atom 0.13521 14.22546 7.67678 H
atom 5.85101 12.35657 0.93064 H
atom 0.07947 2.73307 1.06833 H
atom 0.07947 6.89043 5.29193 H
atom 5.85101 16.51393 5.15424 H
atom 0.19748 12.49130 1.58073 H
atom 5.73299 2.86780 0.41824 H
atom 5.73299 6.75570 4.64184 H
atom 0.19748 16.37920 5.80433 H
atom 2.38702 11.78956 3.49375 C
atom 3.54346 2.16606 6.95242 C
atom 3.54346 7.45744 2.72882 C
atom 2.38702 17.08094 -0.72985 C
atom 4.26579 11.03719 4.53333 C
atom 1.66469 1.41369 5.91283 C
atom 1.66469 8.20981 1.68923 C
atom 4.26579 17.83331 0.30973 C
atom 3.49661 10.00844 5.16145 C
atom 2.43387 0.38494 5.28472 C
atom 2.43387 9.23856 1.06112 C
atom 3.49661 18.86206 0.93785 C
atom 2.09405 9.98092 4.83778 C
atom 3.83643 0.35742 5.60838 C
atom 3.83643 9.26608 1.38478 C
atom 2.09405 18.88958 0.61418 C
atom 2.66990 13.62572 1.90938 C
atom 3.26058 4.00222 0.08959 C
atom 3.26058 5.62128 4.31319 C
atom 2.66990 15.24478 6.13298 C
atom 2.18538 15.02921 2.01595 C
atom 3.74510 5.40571 -0.01698 C
atom 3.74510 4.21779 4.20662 C
atom 2.18538 13.84129 6.23955 C
atom 0.03143 14.31707 2.52490 C
atom 5.89905 4.69357 -0.52594 C
atom 5.89905 4.92993 3.69766 C
atom 0.03143 14.55343 6.74850 C
atom 0.42225 12.86527 2.46953 C
atom 5.50823 3.24177 -0.47056 C
atom 5.50823 6.38173 3.75304 C
atom 0.42225 16.00523 6.69313 C
atom 1.54548 10.86589 4.00540 N
atom 4.38500 1.24239 6.44077 N
atom 4.38500 8.38111 2.21717 N
atom 1.54548 18.00461 -0.21820 N
atom 3.71248 11.89388 3.69851 N
atom 2.21800 2.27038 6.74766 N
atom 2.21800 7.35312 2.52406 N
atom 3.71248 16.97662 -0.52509 N
atom 5.55093 11.18231 4.79208 N
atom 0.37955 1.55881 5.65409 N
atom 0.37955 8.06469 1.43049 N
atom 5.55093 17.68818 0.56848 N
atom 4.14837 9.16484 5.96695 N
atom 1.78211 18.78834 4.47922 N
atom 1.78211 10.08216 0.25562 N
atom 4.14837 0.45866 1.74335 N
atom 1.33436 9.06091 5.37280 N
atom 4.59612 18.68441 5.07337 N
atom 4.59612 10.18609 0.84977 N
atom 1.33436 0.56259 1.14920 N
atom 1.84972 12.73651 2.70951 N
atom 4.08076 3.11301 -0.71055 N
atom 4.08076 6.51049 3.51305 N
atom 1.84972 16.13399 6.93311 N
atom 3.50551 8.21616 6.53416 O
atom 2.42497 17.83966 3.91201 O
atom 2.42497 11.03084 -0.31159 O
atom 3.50551 1.40734 2.31056 O
atom 0.80536 15.12814 1.66018 O
atom 5.12512 5.50464 0.33879 O
atom 5.12512 4.11886 4.56239 O
atom 0.80536 13.74236 5.88378 O
