lattice_vector 6.967597 0.0 -0.321271
lattice_vector -1.522279 7.120962 -1.667768
lattice_vector 0.0 0.0 12.161
atom 1.36034 1.14932 4.63670 H
atom 4.08498 5.97164 5.53526 H
atom 2.91206 0.56896 4.04159 H
atom 2.53326 6.55200 6.13037 H
atom 4.74344 5.04591 1.27140 H
atom 0.70188 2.07505 8.90056 H
atom -0.28919 4.98040 0.52345 H
atom 5.73451 2.14056 9.64851 H
atom 1.58124 3.82182 -0.22858 H
atom 3.86408 3.29914 10.40055 H
atom 0.15667 0.46001 1.44806 H
atom 5.28864 6.66095 8.72390 H
atom 5.24558 1.58228 1.88077 H
atom 0.19974 5.53868 8.29119 H
atom 2.37234 0.40803 0.57906 H
atom 3.07298 6.71293 9.59290 H
atom 3.08977 1.78451 0.19058 H
atom 2.35554 5.33645 9.98139 H
atom 2.18553 1.02115 11.27349 H
atom 3.25979 6.09982 -1.10153 H
atom -0.82810 4.45060 4.30523 H
atom 6.27342 2.67036 5.86673 H
atom -0.99546 5.99941 4.67068 H
atom 6.44077 1.12155 5.50128 H
atom 0.01730 5.08508 5.50626 H
atom 5.42801 2.03588 4.66570 H
atom 2.42012 2.52794 3.63115 C
atom 3.02520 4.59302 6.54081 C
atom 3.65456 3.92721 2.34011 C
atom 1.79075 3.19375 7.83185 C
atom 2.69423 4.99393 2.60562 C
atom 2.75109 2.12703 7.56634 C
atom 1.59937 4.63005 3.44174 C
atom 3.84594 2.49091 6.73023 C
atom 5.78701 3.41379 1.12180 C
atom -0.34169 3.70717 9.05016 C
atom -0.20084 4.05539 0.71838 C
atom 5.64615 3.06557 9.45358 C
atom 0.91608 3.36109 0.26963 C
atom 4.52924 3.75987 9.90233 C
atom 1.08048 1.99885 0.53493 C
atom 4.36483 5.12211 9.63703 C
atom 0.07135 1.38716 1.25611 C
atom 5.37397 5.73380 8.91585 C
atom 5.91640 2.04585 1.39376 C
atom -0.47108 5.07511 8.77820 C
atom 2.28711 1.23691 0.06329 C
atom 3.15820 5.88405 10.10867 C
atom -0.36228 5.25385 4.61915 C
atom 5.80759 1.86712 5.55281 C
atom 1.44020 3.44512 3.95838 N
atom 4.00512 3.67584 6.21358 N
atom 3.50026 2.71950 2.87547 N
atom 1.94506 4.40147 7.29649 N
atom 2.25282 1.32236 4.16173 N
atom 3.19250 5.79860 6.01023 N
atom 4.68153 4.20778 1.53840 N
atom 0.76379 2.91319 8.63356 N
atom 2.75386 6.26645 2.16582 N
atom 2.69146 0.85452 8.00614 N
atom 3.73538 6.60968 1.42996 O
atom 1.70994 0.51129 8.74200 O
atom 0.70150 5.58711 3.69465 O
atom 4.74381 1.53386 6.47731 O
