lattice_vector 3.811664 0.0 0.201762
lattice_vector -0.552258 6.482923 -0.353513
lattice_vector 0.0 0.0 13.531
atom 2.14677 3.43595 2.89152 H
atom 1.11264 3.04697 10.48773 H
atom 1.28943 3.65637 5.12186 H
atom 1.96998 2.82655 8.25739 H
atom 0.26687 2.23661 6.47832 H
atom 2.99254 4.24631 6.90093 H
atom 3.15334 6.38568 5.28696 H
atom 0.10607 0.09724 8.09229 H
atom 0.14046 5.95781 2.90274 H
atom 3.11895 0.52512 10.47651 H
atom 2.90439 2.82007 0.93278 H
atom 0.35502 3.66285 12.44647 H
atom 2.79045 1.42819 13.01190 C
atom 0.46896 5.05474 0.36735 C
atom 1.77295 1.02301 1.51079 C
atom 1.48646 5.45992 11.86846 C
atom 2.20911 0.10891 12.99841 C
atom 1.05030 6.37401 0.38084 C
atom 1.35826 1.32705 2.87274 C
atom 1.90115 5.15587 10.50651 C
atom 1.53445 2.61456 3.40626 C
atom 1.72495 3.86836 9.97299 C
atom 1.12926 2.85184 4.72198 C
atom 2.13015 3.63109 8.65727 C
atom 0.55727 1.87032 5.46877 C
atom 2.70214 4.61260 7.91048 C
atom 0.37969 0.59902 4.94654 C
atom 2.87972 5.88390 8.43271 C
atom 0.77676 0.32285 3.63774 C
atom 2.48265 6.16007 9.74151 C
atom 2.47032 1.93321 0.75662 N
atom 0.78909 4.54972 12.62263 N
atom 3.43625 2.06676 12.18199 O
atom -0.17685 4.41617 1.19726 O
