lattice_vector 6.632239 0.0 -2.143433
lattice_vector 0.0 14.233 0.0
lattice_vector 0.0 0.0 7.633
atom 1.41267 0.51239 1.31430 H
atom 4.72879 13.72061 4.05909 H
atom 1.37287 12.59620 0.44174 H
atom 4.68899 1.63680 3.18652 H
atom 2.12232 14.16183 4.29082 H
atom 5.43844 0.07117 -0.59740 H
atom 2.16211 2.04955 5.22445 H
atom 5.47823 12.18345 0.33623 H
atom 2.95135 11.32947 0.29798 H
atom 6.26747 2.90353 3.04277 H
atom 3.64110 10.02003 -0.26842 H
atom 0.32498 4.21297 4.61980 H
atom 0.96167 10.00580 0.81125 H
atom 4.27779 4.22720 3.55604 H
atom 2.32128 9.40801 1.55496 H
atom 5.63740 4.82499 4.29975 H
atom 2.58657 7.68582 -0.00394 H
atom 5.90269 6.54718 2.74084 H
atom 0.25203 8.76753 6.23867 H
atom 3.56814 5.46547 1.35046 H
atom 1.20707 7.52926 5.72393 H
atom 4.52319 6.70374 0.83571 H
atom 1.73765 9.52188 4.47620 H
atom 5.05377 4.71112 -0.41202 H
atom 3.05083 8.99526 5.39521 H
atom 6.36695 5.23774 0.50699 H
atom 6.42001 7.70005 -1.25811 H
atom 3.10389 6.53295 3.63010 H
atom 0.63669 6.34792 0.34381 H
atom 3.95281 7.88508 3.08859 H
atom 1.02136 7.15920 1.74609 H
atom 4.33748 7.07380 4.49087 H
atom 1.92866 3.03305 1.48340 C
atom 5.24477 11.19995 4.22818 C
atom 2.20190 3.96389 6.88932 C
atom 5.51802 10.26911 2.00111 C
atom 2.01885 2.82240 0.08489 C
atom 5.33497 11.41060 2.82967 C
atom 1.91207 1.51012 -0.46453 C
atom 5.22819 12.72288 2.28026 C
atom 1.66204 0.38714 0.36660 C
atom 4.97816 13.84586 3.11139 C
atom 1.62490 13.35482 -0.13433 C
atom 4.94102 0.87818 2.61045 C
atom 1.87029 13.11002 6.12404 C
atom 5.18641 1.12298 1.23582 C
atom 2.02748 0.01708 5.27483 C
atom 5.34360 14.21592 0.38661 C
atom 2.05533 1.28382 5.77953 C
atom 5.37145 12.94918 0.89131 C
atom 1.97840 11.80627 5.55174 C
atom 5.29452 2.42673 0.66352 C
atom 1.87759 11.76642 4.09283 C
atom 5.19371 2.46658 -0.79538 C
atom 2.76365 10.45129 -0.14666 C
atom 6.07977 3.78171 2.59812 C
atom 1.85835 9.55746 0.68710 C
atom 5.17447 4.67554 3.43188 C
atom 1.67000 8.19536 0.00986 C
atom 4.98612 6.03764 2.75464 C
atom 1.20707 8.39605 6.19412 C
atom 4.52319 5.83695 1.30590 C
atom 2.10043 9.34539 5.42300 C
atom 5.41655 4.88761 0.53478 C
atom 0.70501 7.31719 0.79574 C
atom 4.02113 6.91581 3.54052 C
atom 1.88289 3.15973 2.62787 N
atom 5.19901 11.07327 5.37265 N
atom 2.35710 4.89758 6.22853 N
atom 5.67322 9.33542 1.34031 N
atom 1.84310 11.80912 2.94834 N
atom 5.15922 2.42388 5.69313 N
atom 2.19461 10.64059 6.13372 N
atom 5.51073 3.59241 1.24551 N
