lattice_vector 7.798807 0.0 -3.035141
lattice_vector 0.0 6.7077 0.0
lattice_vector 0.0 0.0 11.123
atom 7.23885 1.07122 4.05791 H
atom 0.55995 4.42507 4.02995 H
atom 4.64263 2.12097 3.95378 H
atom 3.15618 5.47482 4.13408 H
atom 4.53813 1.53606 0.66200 H
atom 3.26068 4.88991 7.42586 H
atom 5.27511 3.92669 2.69321 H
atom 2.52369 0.57284 5.39464 H
atom 7.03296 3.90187 4.89662 H
atom 0.76584 0.54802 3.19123 H
atom 5.51454 4.27884 5.00594 H
atom 2.28427 0.92499 3.08192 H
atom 6.49173 5.18975 4.18628 H
atom 1.30708 1.83590 3.90158 H
atom 0.01482 3.46319 5.79265 H
atom 7.78399 0.10934 2.29521 H
atom 0.63014 6.32939 8.38843 H
atom 7.16866 2.97554 -0.30057 H
atom 1.22363 0.12678 9.74916 H
atom 6.57517 3.48063 -1.66130 H
atom 0.95847 1.14232 8.58433 H
atom 6.84033 4.49617 -0.49647 H
atom 2.90662 2.19677 7.23664 H
atom 4.89219 5.55062 0.85122 H
atom 3.22715 1.78358 8.63129 H
atom 4.57166 5.13743 -0.54343 H
atom 6.13532 1.16043 5.68978 C
atom 1.66349 4.51428 2.39808 C
atom 5.50908 2.04652 3.50090 C
atom 2.28973 5.40037 4.58696 C
atom 5.28993 1.26843 2.20471 C
atom 2.50888 4.62228 5.88315 C
atom 5.99338 3.47258 3.18117 C
atom 1.80542 0.11873 4.90669 C
atom 6.28506 4.28555 4.43244 C
atom 1.51375 0.93170 3.65542 C
atom 0.64184 0.34679 9.01789 C
atom 7.15697 3.70064 -0.93003 C
atom 6.86919 0.36892 7.85790 C
atom 0.92962 3.72277 0.22995 C
atom 5.56679 0.85255 8.36477 C
atom 2.23202 4.20640 -0.27691 C
atom 4.62781 1.42606 7.40879 C
atom 3.17099 4.77991 0.67907 C
atom 4.93041 1.55216 6.11711 N
atom 2.86840 4.90601 1.97075 N
atom 6.41920 1.34154 4.39970 N
atom 1.37961 4.69539 3.68816 N
atom 7.08522 0.57418 6.48957 N
atom 0.71359 3.92803 1.59829 N
atom 5.44747 0.81163 -1.44911 N
atom 2.35134 4.16548 9.53697 N
atom 3.45253 1.85065 7.80412 N
atom 4.34628 5.20450 0.28374 N
atom 4.45702 1.84328 1.41768 O
atom 3.34179 5.19713 6.67018 O
atom 5.86860 0.19989 1.97550 O
atom 1.93020 3.55374 6.11236 O
atom 7.12655 3.40282 2.31470 O
atom 0.67226 0.04897 5.77315 O
atom 7.71536 6.55074 -2.57621 O
atom 0.08345 3.19689 10.66407 O
atom 4.31274 1.28654 -0.95355 O
atom 3.48607 4.64039 9.04141 O
