lattice_vector 4.757092 0.0 0.220511
lattice_vector -0.016197 5.721331 1.024177
lattice_vector 0.0 0.0 13.5635
atom 0.21625 3.09352 8.51241 H
atom 1.08162 2.90815 9.75224 H
atom 1.92834 4.93923 6.03610 H
atom 4.69253 2.13863 5.48757 H
atom 3.17941 2.77084 3.81897 H
atom 2.85543 1.43434 1.93962 H
atom 3.99898 5.14863 2.74617 H
atom 0.77453 4.50955 4.17088 H
atom 3.02716 3.11355 11.01584 H
atom 1.39177 1.90177 12.17561 H
atom 0.63850 2.65470 0.68013 H
atom 1.51832 4.58622 1.61218 H
atom 3.11786 0.14704 12.96803 H
atom 4.12153 0.67626 10.80221 H
atom 0.38873 5.18353 11.71331 H
atom 1.51797 1.68550 8.33001 C
atom 1.80338 0.34671 6.51648 C
atom 2.84906 5.36489 8.23432 C
atom 3.15029 0.11729 8.52080 C
atom 0.52165 0.40621 4.36538 C
atom 4.56659 1.58824 4.72259 C
atom 3.66598 1.95956 3.73010 C
atom 3.46796 1.16372 2.61263 C
atom 4.14203 5.70245 3.50442 C
atom 0.29319 5.32313 4.26447 C
atom 3.21507 4.62627 12.37655 C
atom 2.70944 3.43165 11.85292 C
atom 1.74296 2.70218 12.54822 C
atom 1.30072 3.14730 13.77256 C
atom 1.81170 4.30015 14.31880 C
atom 2.76619 5.06166 13.61919 C
atom 4.23840 5.43641 11.63053 C
atom 2.49437 1.09506 9.10868 N
atom 0.86488 2.67358 8.93261 N
atom 1.16116 1.36168 7.09117 N
atom 1.46921 5.63666 6.31419 N
atom 3.55189 4.28070 7.81633 N
atom 3.27731 3.81041 6.65570 O
atom 4.12629 5.21385 10.19737 O
