lattice_vector 9.401 0.0 0.0
lattice_vector 0.0 16.515 0.0
lattice_vector 0.0 0.0 7.053
atom 0.71824 0.28571 1.73292 H
atom 3.98226 7.97179 1.73292 H
atom 5.41874 16.22929 1.79358 H
atom 8.68276 8.54321 1.79358 H
atom 8.68276 16.22929 5.32008 H
atom 5.41874 8.54321 5.32008 H
atom 3.98226 0.28571 5.25942 H
atom 0.71824 7.97179 5.25942 H
atom 0.47287 1.47809 0.77160 H
atom 4.22763 6.77941 0.77160 H
atom 5.17337 15.03691 2.75490 H
atom 8.92813 9.73559 2.75490 H
atom 8.92813 15.03691 6.28140 H
atom 5.17337 9.73559 6.28140 H
atom 4.22763 1.47809 4.29810 H
atom 0.47287 6.77941 4.29810 H
atom 2.06164 1.91574 2.44528 H
atom 2.63886 6.34176 2.44528 H
atom 6.76214 14.59926 1.08122 H
atom 7.33936 10.17324 1.08122 H
atom 7.33936 14.59926 4.60772 H
atom 6.76214 10.17324 4.60772 H
atom 2.63886 1.91574 5.97178 H
atom 2.06164 6.34176 5.97178 H
atom 0.90626 1.84803 3.47924 H
atom 3.79424 6.40947 3.47924 H
atom 5.60676 14.66697 0.04726 H
atom 8.49474 10.10553 0.04726 H
atom 8.49474 14.66697 3.57376 H
atom 5.60676 10.10553 3.57376 H
atom 3.79424 1.84803 7.00574 H
atom 0.90626 6.40947 7.00574 H
atom 6.15765 3.04041 2.12013 C
atom 7.94384 5.21709 2.12013 C
atom 1.45715 13.47459 1.40637 C
atom 3.24335 11.29791 1.40637 C
atom 3.24335 13.47459 4.93287 C
atom 1.45715 11.29791 4.93287 C
atom 7.94384 3.04041 5.64663 C
atom 6.15765 5.21709 5.64663 C
atom 7.61011 2.77782 2.11026 C
atom 6.49139 5.47968 2.11026 C
atom 2.90961 13.73718 1.41624 C
atom 1.79089 11.03532 1.41624 C
atom 1.79089 13.73718 4.94274 C
atom 2.90961 11.03532 4.94274 C
atom 6.49139 2.77782 5.63676 C
atom 7.61011 5.47968 5.63676 C
atom 8.46184 3.83974 2.17444 C
atom 5.63966 4.41776 2.17444 C
atom 3.76134 12.67526 1.35206 C
atom 0.93916 12.09724 1.35206 C
atom 0.93916 12.67526 4.87856 C
atom 3.76134 12.09724 4.87856 C
atom 5.63966 3.83974 5.70094 C
atom 8.46184 4.41776 5.70094 C
atom 0.36194 1.16431 1.66451 C
atom 4.33856 7.09319 1.66451 C
atom 5.06244 15.35069 1.86199 C
atom 9.03906 9.42181 1.86199 C
atom 9.03906 15.35069 5.38849 C
atom 5.06244 9.42181 5.38849 C
atom 4.33856 1.16431 5.19101 C
atom 0.36194 7.09319 5.19101 C
atom 1.13282 2.06603 2.58140 C
atom 3.56768 6.19147 2.58140 C
atom 5.83332 14.44897 0.94510 C
atom 8.26818 10.32353 0.94510 C
atom 8.26818 14.44897 4.47160 C
atom 5.83332 10.32353 4.47160 C
atom 3.56768 2.06603 6.10790 C
atom 1.13282 6.19147 6.10790 C
atom 7.99931 1.09181 2.02210 S
atom 6.10219 7.16569 2.02210 S
atom 3.29881 15.42319 1.50440 S
atom 1.40169 9.34931 1.50440 S
atom 1.40169 15.42319 5.03090 S
atom 3.29881 9.34931 5.03090 S
atom 6.10219 1.09181 5.54859 S
atom 7.99931 7.16569 5.54859 S
atom 0.78498 3.80489 2.31056 S
atom 3.91552 4.45261 2.31056 S
atom 5.48548 12.71011 1.21594 S
atom 8.61602 12.06239 1.21594 S
atom 8.61602 12.71011 4.74244 S
atom 5.48548 12.06239 4.74244 S
atom 3.91552 3.80489 5.83706 S
atom 0.78498 4.45261 5.83706 S
atom 5.35199 2.10566 2.07993 O
atom 8.74951 6.15184 2.07993 O
atom 0.65149 14.40934 1.44657 O
atom 4.04901 10.36316 1.44657 O
atom 4.04901 14.40934 4.97307 O
atom 0.65149 10.36316 4.97307 O
atom 8.74951 2.10566 5.60643 O
atom 5.35199 6.15184 5.60643 O
