lattice_vector 7.989517 0.0 -0.07823
lattice_vector -3.101507 7.700955 -1.450433
lattice_vector 0.0 0.0 17.0042
atom -0.32343 3.73111 1.26331 H
atom -1.20824 3.40074 0.06358 H
atom 1.96083 1.40003 3.59705 H
atom 3.95707 6.48728 13.53299 H
atom 4.53735 5.33214 14.48061 H
atom -1.22150 4.47117 14.15841 H
atom 0.58763 4.20857 12.71353 H
atom 0.84745 5.67021 10.89955 H
atom -0.72399 7.34825 10.54126 H
atom -2.54166 7.57851 11.95674 H
atom 0.31525 7.26739 3.48139 H
atom 2.35096 2.09774 5.82435 H
atom 3.30582 1.20674 6.74472 H
atom 5.68396 1.10047 6.26915 H
atom -0.41814 2.12931 5.44240 H
atom -0.66848 3.80427 3.84066 H
atom 5.19215 4.43036 3.05923 H
atom 3.31338 3.38996 3.95615 H
atom 5.65462 5.25590 6.04344 H
atom -2.52636 6.70137 6.79783 H
atom -0.60404 6.39179 8.05604 H
atom -0.33988 4.98406 7.34130 H
atom -1.59588 5.16272 8.31739 H
atom 0.42964 2.13702 14.49585 H
atom 0.73869 1.74658 15.89083 H
atom 5.29848 2.54363 11.95880 H
atom 3.83860 1.40542 1.03040 H
atom 5.24685 1.91600 1.60540 H
atom 1.22069 6.59433 15.39606 H
atom 1.78378 4.44037 -0.83899 H
atom 2.88027 4.15389 1.20506 H
atom 3.46524 6.00443 2.45379 H
atom 6.05387 0.42201 3.15839 H
atom 3.07295 4.08613 11.65168 H
atom 5.20837 4.58053 10.59197 H
atom 4.97294 3.33605 9.61437 H
atom 3.67685 3.63408 7.62277 H
atom 2.49097 5.03719 6.18109 H
atom 1.78301 7.13031 6.89931 H
atom 5.45061 0.17019 10.49392 H
atom 3.58011 6.49884 10.45500 H
atom -0.43328 2.00225 10.58354 H
atom 0.70311 0.91641 10.27618 H
atom 1.02209 1.80664 8.18211 H
atom -0.04817 2.95640 8.48843 H
atom -0.52286 1.43315 8.37108 H
atom -1.30812 5.23973 0.56949 C
atom -1.30589 7.35287 1.37638 C
atom 1.12563 0.12322 1.63969 C
atom -2.29948 6.79070 -0.74949 C
atom 4.74756 6.20081 14.05526 C
atom -2.05417 6.03678 13.20525 C
atom -1.12454 5.05568 13.41422 C
atom -0.04513 4.90089 12.56280 C
atom 0.10716 5.76262 11.48758 C
atom -0.82633 6.75528 11.27694 C
atom -1.90064 6.89544 12.11684 C
atom 2.63876 0.18097 5.05848 C
atom 3.09995 1.45009 5.80790 C
atom 4.30712 2.12469 5.20929 C
atom 5.57623 1.77661 5.61136 C
atom 6.70434 2.38961 5.07774 C
atom 6.55538 3.37841 4.12898 C
atom 5.29535 3.74959 3.71286 C
atom 4.17943 3.12813 4.24832 C
atom -1.53193 7.18807 4.46900 C
atom -1.85656 6.03216 6.50676 C
atom -1.02942 5.60707 7.65166 C
atom 2.33333 2.09389 14.87813 C
atom 4.01269 2.35187 13.37132 C
atom 4.96227 1.89058 14.35160 C
atom 4.41367 1.71731 15.67343 C
atom 4.81752 1.26604 0.99405 C
atom 2.04450 7.58005 -0.02881 C
atom 1.68401 6.48343 -0.78536 C
atom 2.01345 5.20122 -0.31928 C
atom 2.67188 5.02641 0.89308 C
atom 3.01182 6.11456 1.62595 C
atom 2.70637 7.37289 1.17953 C
atom 3.61529 3.38226 11.19303 C
atom 4.51436 4.04223 10.13603 C
atom 3.74401 4.92938 9.19096 C
atom 3.41404 4.49890 7.91306 C
atom 2.69878 5.33060 7.06127 C
atom 2.28976 6.57431 7.47908 C
atom 2.62075 7.01018 8.74897 C
atom 3.34766 6.18926 9.58667 C
atom 2.68388 2.37805 10.53687 C
atom 0.41683 1.84746 10.09996 C
atom 0.19897 2.02535 8.66674 C
atom -1.99496 5.53468 -0.57982 N
atom -0.94418 3.96907 0.68800 N
atom -0.98789 6.07528 1.57183 N
atom 2.09724 0.54754 3.76831 N
atom 0.73224 1.36384 1.33714 N
atom 3.13779 1.78662 15.93004 N
atom 1.04173 2.07926 15.13267 N
atom 2.71834 2.46508 13.63242 N
atom 4.46103 2.71459 12.16844 N
atom 6.26475 1.65802 14.20230 N
atom 0.98720 2.29797 2.18751 O
atom 5.03625 7.18807 15.08282 O
atom -2.70072 7.23351 4.25525 O
atom -0.95457 6.61743 5.51086 O
atom 6.77487 1.83360 13.02750 O
atom 5.29802 1.47550 16.63255 O
atom 3.05639 1.36384 10.03481 O
atom 1.43158 2.76772 10.59885 O
