lattice_vector 3.711478 0.0 -0.441122
lattice_vector 0.0 11.0011 0.0
lattice_vector 0.0 0.0 5.7184
atom 0.46097 3.34653 2.27946 H
atom 3.25051 8.84708 0.13861 H
atom 3.25051 7.65457 2.99781 H
atom 0.46097 2.15402 5.13866 H
atom 0.87146 6.37514 4.77479 H
atom 2.84002 0.87459 3.36169 H
atom 2.84002 4.62596 0.50249 H
atom 0.87146 10.12651 1.91559 H
atom 0.27576 4.22519 2.52221 C
atom 3.43572 9.72574 -0.10413 C
atom 3.43572 6.77591 2.75507 C
atom 0.27576 1.27536 5.38141 C
atom 0.51849 6.01089 3.99501 C
atom 3.19298 0.51034 4.14147 C
atom 3.19298 4.99021 1.28227 C
atom 0.51849 10.49076 1.13581 C
atom 0.80131 4.72882 3.66918 N
atom 2.91017 10.22937 4.46729 N
atom 2.91017 6.27228 1.60809 N
atom 0.80131 0.77173 0.80998 N
atom 1.56996 4.00198 4.41786 O
atom 2.14152 9.50253 3.71862 O
atom 2.14152 6.99912 0.85942 O
atom 1.56996 1.49857 1.55866 O
