lattice_vector 5.222736 0.0 -0.175994
lattice_vector -0.471471 6.814234 -0.925951
lattice_vector 0.0 0.0 12.162
atom 4.69839 2.75499 1.12587 H
atom 0.05288 4.05924 9.93419 H
atom 3.17195 5.83230 1.82101 H
atom 1.57931 0.98193 9.23904 H
atom 0.86572 0.25962 0.87993 H
atom 3.88554 6.55461 10.18012 H
atom 2.84875 1.04530 2.61030 H
atom 1.90251 5.76893 8.44976 H
atom 1.64937 1.90935 2.13967 H
atom 3.10190 4.90489 8.92038 H
atom 1.02246 6.79584 3.20755 H
atom 3.72881 0.01840 7.85251 H
atom 0.28442 0.82589 3.65500 H
atom 4.46684 5.98835 7.40506 H
atom 2.50817 1.89163 4.92747 H
atom 2.24310 4.92260 6.13259 H
atom 1.28969 2.72978 4.45863 H
atom 3.46158 4.08445 6.60142 H
atom 1.22792 0.89743 6.52611 H
atom 3.52334 5.91680 4.53394 H
atom -0.01399 1.68925 6.04015 H
atom 4.76525 5.12499 5.01991 H
atom 1.17099 2.43745 6.70436 H
atom 3.58028 4.37678 4.35569 H
atom 3.42638 4.05719 0.85496 C
atom 1.32488 2.75704 10.20509 C
atom 2.83235 5.28308 1.12392 C
atom 1.91892 1.53116 9.93614 C
atom 1.73688 5.70965 0.37215 C
atom 3.01439 1.10459 10.68790 C
atom 1.19842 4.84901 -0.69479 C
atom 3.55285 1.96523 11.75484 C
atom 1.81619 3.61972 11.22834 C
atom 2.93507 3.19451 -0.16828 C
atom 1.90943 1.05689 2.46887 C
atom 2.84184 5.75735 8.59119 C
atom 1.22399 0.82589 3.79239 C
atom 3.52727 5.98835 7.26767 C
atom 1.56556 1.89027 4.80740 C
atom 3.18571 4.92397 6.25266 C
atom 0.93020 1.71310 6.14003 C
atom 3.82107 5.10114 4.92002 C
atom 1.58594 0.06337 1.46778 N
atom 3.16533 6.75086 9.59228 N
atom 0.19040 5.27967 10.78369 O
atom 4.56086 1.53457 0.27636 O
atom 4.47901 3.68377 1.58502 O
atom 0.27225 3.13046 9.47504 O
