lattice_vector 4.549808 0.0 -0.533675
lattice_vector 0.0 11.744 0.0
lattice_vector 0.0 0.0 16.594
atom 0.77529 10.54729 0.57116 H
atom 3.77452 4.67529 7.19216 H
atom 3.77452 1.19671 15.48916 H
atom 0.77529 7.06871 8.86816 H
atom 0.15651 8.38287 0.20068 H
atom 4.39329 2.51087 7.56264 H
atom 4.39329 3.36113 15.85964 H
atom 0.15651 9.23313 8.49768 H
atom 1.49643 4.33588 1.34117 H
atom 3.05338 10.20788 6.42216 H
atom 3.05338 7.40812 14.71916 H
atom 1.49643 1.53612 9.63817 H
atom 1.88271 5.18850 2.59849 H
atom 2.66710 11.06050 5.16484 H
atom 2.66710 6.55550 13.46184 H
atom 1.88271 0.68350 10.89549 H
atom 2.80496 5.19789 1.33205 H
atom 1.74485 11.06989 6.43128 H
atom 1.74485 6.54611 14.72828 H
atom 2.80496 0.67411 9.62905 H
atom 3.05201 7.16032 2.71854 H
atom 1.49780 1.28832 5.04479 H
atom 1.49780 4.58368 13.34179 H
atom 3.05201 10.45568 11.01554 H
atom 3.62620 9.34822 3.04281 H
atom 0.92361 3.47622 4.72052 H
atom 0.92361 2.39578 13.01752 H
atom 3.62620 8.26778 11.33981 H
atom 1.23664 9.85674 0.99064 C
atom 3.31317 3.98474 6.77268 C
atom 3.31317 1.88726 15.06968 C
atom 1.23664 7.75926 9.28764 C
atom 0.86719 8.56960 0.77129 C
atom 3.68261 2.69760 6.99203 C
atom 3.68261 3.17440 15.28903 C
atom 0.86719 9.04640 9.06829 C
atom 1.55194 7.51874 1.39937 C
atom 2.99787 1.64674 6.36395 C
atom 2.99787 4.22526 14.66095 C
atom 1.55194 10.09726 9.69637 C
atom 1.89681 5.15562 1.63936 C
atom 2.65299 11.02762 6.12397 C
atom 2.65299 6.58838 14.42097 C
atom 1.89681 0.71638 9.93636 C
atom 2.59339 7.83489 2.27153 C
atom 1.95642 1.96289 5.49180 C
atom 1.95642 3.90911 13.78880 C
atom 2.59339 9.78111 10.56853 C
atom 2.93144 9.13953 2.46153 C
atom 1.61837 3.26753 5.30179 C
atom 1.61837 2.60447 13.59879 C
atom 2.93144 8.47647 10.75853 C
atom 2.69804 11.48082 1.97666 C
atom 1.85177 5.60882 5.78667 C
atom 1.85177 0.26318 14.08367 C
atom 2.69804 6.13518 10.27366 C
atom 2.18709 0.97358 1.48401 C
atom 2.36272 6.84558 6.27932 C
atom 2.36272 10.77042 14.57632 C
atom 2.18709 4.89842 9.78101 C
atom 3.32682 1.67352 2.22350 C
atom 1.22299 7.54552 5.53983 C
atom 1.22299 10.07048 13.83683 C
atom 3.32682 4.19848 10.52050 C
atom 3.79772 0.29290 2.67421 C
atom 0.75208 6.16490 5.08911 C
atom 0.75208 11.45110 13.38611 C
atom 3.79772 5.57910 10.97121 C
atom 2.27718 10.14599 1.82025 N
atom 2.27263 4.27399 5.94307 N
atom 2.27263 1.59801 14.24007 N
atom 2.27718 7.47001 10.11726 N
atom 1.14883 6.28374 1.10349 O
atom 3.40098 0.41174 6.65983 O
atom 3.40098 5.46026 14.95683 O
atom 1.14883 11.33226 9.40049 O
atom 1.25529 1.33341 0.76676 O
atom 3.29452 7.20541 6.99657 O
atom 3.29452 10.41059 15.29357 O
atom 1.25529 4.53859 9.06376 O
atom 3.69353 2.81128 2.40749 O
atom 0.85627 8.68328 5.35584 O
atom 0.85627 8.93272 13.65284 O
atom 3.69353 3.06072 10.70449 O
atom 0.18154 11.61188 3.88676 O
atom 4.36827 5.73988 3.87657 O
atom 4.36827 0.13212 12.17357 O
atom 0.18154 6.00412 12.18376 O
