lattice_vector 8.937927 0.0 0.036035
lattice_vector 2.226995 9.476869 3.987462
lattice_vector 0.0 0.0 12.548
atom 7.68716 4.68442 7.16357 H
atom 3.47776 4.79245 9.40793 H
atom 4.47522 7.64120 6.16087 H
atom 6.68971 1.83567 10.41063 H
atom 5.56776 5.81311 5.22090 H
atom 5.59716 3.66376 11.35060 H
atom 8.09551 4.83605 9.76608 H
atom 3.06942 4.64082 6.80542 H
atom 9.59893 3.34154 10.79228 H
atom 1.56599 6.13532 5.77921 H
atom 4.22240 8.89688 8.08485 H
atom 6.94252 0.57998 8.48665 H
atom 2.45754 0.49280 8.56748 H
atom 8.70738 8.98407 8.00401 H
atom 2.13760 1.57316 10.60957 H
atom 9.02732 7.90371 5.96193 H
atom 6.95160 6.62812 9.94788 H
atom 4.21332 2.84875 6.62362 H
atom 5.44394 8.39745 9.96433 H
atom 5.72098 1.07942 6.60717 H
atom 1.09554 1.44427 5.71652 H
atom 10.06938 8.03259 10.85498 H
atom 3.21388 4.77255 3.10192 H
atom 7.95104 4.70432 13.46957 H
atom 3.61442 4.62092 13.03938 H
atom 7.55050 4.85595 3.53211 H
atom 5.12305 6.14954 12.04968 H
atom 6.04187 3.32733 4.52182 H
atom 8.90789 1.81198 4.10174 H
atom 2.25703 7.66489 12.46975 H
atom 6.91914 8.96607 14.25446 H
atom 4.24578 0.51080 2.31704 H
atom 1.05267 3.66944 5.01047 H
atom 10.11225 5.80743 11.56103 H
atom 8.69326 0.55250 2.17805 H
atom 2.47166 8.92437 14.39344 H
atom 6.56446 7.92456 12.19710 H
atom 4.60047 1.55231 4.37439 H
atom 2.54063 2.79757 12.86939 H
atom 8.62429 6.67930 3.70211 H
atom 5.67921 7.85064 4.56720 H
atom 5.48571 1.62623 12.00430 H
atom 1.01721 1.03866 12.83255 H
atom 10.14771 8.43820 3.73895 H
atom 6.64344 6.09647 8.02445 C
atom 4.52148 3.38040 8.54705 C
atom 9.13366 3.40409 8.80773 C
atom 2.03126 6.07278 7.76377 C
atom 4.97813 7.44219 6.91756 C
atom 6.18679 2.03468 9.65394 C
atom 5.88862 6.39120 6.89661 C
atom 5.27630 3.08567 9.67489 C
atom 9.36606 2.82221 7.54800 C
atom 1.79886 6.65466 9.02350 C
atom 8.22628 4.47972 8.91683 C
atom 2.93864 4.99715 7.65466 C
atom 0.82645 2.93499 9.93751 C
atom 10.33847 6.54188 6.63399 C
atom 4.82470 8.18896 8.06990 C
atom 6.34022 1.28791 8.50159 C
atom 1.26763 1.68214 7.50101 C
atom 9.89729 7.79472 9.07048 C
atom 1.89231 1.22915 8.61835 C
atom 9.27262 8.24772 7.95314 C
atom 1.68801 1.86979 9.85142 C
atom 9.47691 7.60708 6.72008 C
atom 6.46655 6.83472 9.18190 C
atom 4.69837 2.64215 7.38960 C
atom 5.55561 7.89139 9.19269 C
atom 5.60931 1.58548 7.37881 C
atom 2.17665 3.34818 2.23501 C
atom 8.98828 6.12869 14.33648 C
atom 4.65166 6.04529 14.02801 C
atom 6.51326 3.43157 2.54349 C
atom 4.90794 6.62623 15.28806 C
atom 6.25698 2.85064 1.28344 C
atom 5.74386 7.75682 15.32186 C
atom 5.42106 1.72005 1.24964 C
atom 3.74665 4.97062 13.89192 C
atom 7.41827 4.50625 2.67958 C
atom 1.38809 3.07714 3.34901 C
atom 9.77683 6.39973 13.22249 C
atom 5.28541 6.54757 12.87495 C
atom 5.87951 2.92930 3.69655 C
atom 0.48352 2.01194 3.31603 C
atom 10.68141 7.46493 13.25547 C
atom 6.35373 8.22971 14.19903 C
atom 4.81119 1.24716 2.37246 C
atom 0.35786 1.26042 2.16684 C
atom 10.80706 8.21644 14.40466 C
atom 6.13300 7.60993 12.95795 C
atom 5.03192 1.86694 3.61355 C
atom 2.03333 2.60140 13.62320 C
atom 9.13159 6.87547 2.94830 C
atom 1.11579 1.54947 1.05652 C
atom 10.04913 7.92740 15.51498 C
atom 7.55931 5.01895 7.94595 N
atom 3.60561 4.45792 8.62555 N
atom 3.08745 4.43612 2.32148 N
atom 8.07747 5.04075 14.25001 N
atom 8.86541 3.26289 6.44356 O
atom 2.29951 6.21398 10.12794 O
atom 6.06579 5.57808 5.82818 O
atom 5.09914 3.89878 10.74331 O
atom 1.53111 1.08036 6.30834 O
atom 9.63381 8.39651 10.26315 O
atom 4.39662 6.15428 3.83357 O
atom 6.76830 3.32259 12.73793 O
atom 1.55122 3.90068 4.40185 O
atom 9.61370 5.57619 12.16965 O
atom 5.98787 8.32353 3.97268 O
atom 5.17705 1.15333 12.59882 O
