lattice_vector 6.233 0.0 0.0
lattice_vector -2.1431370799461527 7.519556134278132 0.0
lattice_vector -1.666444755901622 -1.526144082937492 14.889507920466777
atom 4.69032 3.41990 2.31085 H
atom -2.26690 2.57351 12.57866 H
atom 5.34198 2.33984 0.36926 H
atom -2.91856 3.65358 14.52025 H
atom 2.69479 1.47563 2.02200 H
atom -0.27137 4.51779 12.86751 H
atom 2.07648 2.58592 3.96210 H
atom 0.34694 3.40749 10.92741 H
atom -1.08966 -0.66439 14.07505 H
atom 3.51308 6.65780 0.81446 H
atom 0.18117 -1.27776 14.82846 H
atom 2.24225 7.27117 0.06105 H
atom 0.89701 -0.08503 12.93452 H
atom 1.52641 6.07845 1.95499 H
atom 1.44425 0.64977 14.24628 H
atom 0.97916 5.34364 0.64323 H
atom 0.17491 1.23836 13.47054 H
atom 2.24851 4.75505 1.41897 H
atom 4.01285 4.04143 6.36378 H
atom -1.58944 1.95198 8.52573 H
atom 2.38093 5.68405 6.53649 H
atom 0.04249 0.30936 8.35301 H
atom -0.26406 -0.06824 3.19678 H
atom 2.68747 6.06165 11.69273 H
atom -0.80523 5.78935 2.99279 H
atom 3.22865 0.20406 11.89672 H
atom 4.47483 1.18013 5.13241 H
atom -2.05141 4.81329 9.75709 H
atom 3.58905 0.39247 4.06484 H
atom -1.16563 5.60094 10.82467 H
atom 2.27865 0.86045 5.90369 H
atom 0.14477 5.13297 8.98582 H
atom 3.33253 0.15921 6.88342 H
atom -0.90911 5.83420 8.00609 H
atom 0.34913 6.79466 5.84711 H
atom 2.07429 -0.80125 9.04240 H
atom -0.23889 3.73445 4.62691 C
atom 2.66231 2.25897 10.26259 C
atom 0.35922 3.39663 5.78785 C
atom 2.06420 2.59678 9.10166 C
atom 0.90723 3.12457 6.87955 C
atom 1.51618 2.86884 8.00996 C
atom 0.18977 3.10936 3.35982 C
atom 2.23365 2.88405 11.52969 C
atom -0.67932 3.02740 2.25933 C
atom 3.10274 2.96601 12.63017 C
atom -0.28828 2.38121 1.10272 C
atom 2.71170 3.61220 13.78679 C
atom 0.96551 1.78963 0.98330 C
atom 1.45791 4.20378 13.90621 C
atom 1.83405 1.87450 2.07738 C
atom 0.58936 4.11891 12.81212 C
atom 1.46317 2.52846 3.23891 C
atom 0.96025 3.46496 11.65059 C
atom -0.28109 -0.43369 14.59738 C
atom 2.70451 6.42710 0.29213 C
atom 0.64109 0.41869 13.73498 C
atom 1.78233 5.57472 1.15453 C
atom -1.33186 4.74028 4.67367 C
atom 3.75528 1.25313 10.21584 C
atom 3.97672 4.73295 5.71355 C
atom -1.55330 1.26046 9.17596 C
atom 3.00341 5.71620 5.81927 C
atom -0.58000 0.27721 9.07024 C
atom 2.92821 6.75440 4.88272 C
atom -0.50479 -0.76099 10.00679 C
atom -2.37685 6.75433 3.84164 C
atom 4.80027 -0.76092 11.04787 C
atom -1.41427 5.76945 3.72253 C
atom 3.83769 0.22397 11.16698 C
atom 4.01895 0.32011 4.95419 C
atom -1.59553 5.67330 9.93532 C
atom 2.93596 0.13748 5.98767 C
atom -0.51254 5.85593 8.90184 C
