lattice_vector 5.3719 0.0 0.0
lattice_vector 0.0 6.8819 0.0
lattice_vector 0.0 0.0 10.8378
atom 2.40500 3.61713 5.47201 H
atom 5.09095 6.70572 5.36579 H
atom 2.96690 0.17618 10.78469 H
atom 0.28095 3.26477 0.05311 H
atom 1.63897 4.78086 4.62449 H
atom 4.32492 5.54199 6.21331 H
atom 3.73293 1.33991 0.79441 H
atom 1.04698 2.10104 10.04339 H
atom 2.24599 3.72173 2.63792 H
atom 4.93194 6.60112 8.19988 H
atom 3.12591 0.28078 2.78098 H
atom 0.43996 3.16017 8.05682 H
atom 2.98409 2.54149 3.48544 H
atom 0.29814 0.89946 7.35236 H
atom 2.38781 5.98244 1.93346 H
atom 5.07376 4.34041 8.90434 H
atom 0.87347 2.31094 3.43688 C
atom 3.55942 1.13001 7.40092 C
atom 4.49843 5.75189 1.98202 C
atom 1.81248 4.57096 8.85578 C
atom 0.49636 3.00188 4.78456 C
atom 3.18231 0.43907 6.05324 C
atom 4.87554 6.44283 0.63434 C
atom 2.18959 3.88002 10.20346 C
atom 1.78508 3.80638 4.72366 C
atom 4.47103 6.51647 6.11414 C
atom 3.58682 0.36543 0.69524 C
atom 0.90087 3.07552 10.14256 C
atom 2.17455 3.10511 3.40925 C
atom 4.86050 0.33584 7.42855 C
atom 3.19735 6.54606 2.00965 C
atom 0.51140 3.77679 8.82815 C
atom 0.33950 1.51264 2.73514 O
atom 3.02545 1.92831 8.10266 O
atom 5.03240 4.95359 2.68376 O
atom 2.34645 5.36926 8.15404 O
atom 4.95128 2.89577 5.54603 O
atom 2.26533 0.54518 5.29177 O
atom 0.42062 6.33672 10.71067 O
atom 3.10657 3.98613 0.12713 O
