lattice_vector 7.53822 0.0 0.222412
lattice_vector 3.657678 7.032755 3.220295
lattice_vector 0.0 0.0 9.8925
atom 7.47989 3.32438 4.43609 H
atom 3.71601 3.70837 8.89912 H
atom 8.24516 5.21901 3.43834 H
atom 2.95074 1.81375 9.89686 H
atom 8.77854 6.47646 11.06492 H
atom 2.41736 0.55629 2.27029 H
atom 8.71190 6.42372 8.80687 H
atom 2.48399 0.60904 4.52834 H
atom 6.48309 1.19908 4.44647 H
atom 4.71281 5.83367 8.88874 H
atom 7.15906 0.30874 3.34726 H
atom 4.03684 6.72402 9.98794 H
atom 5.66868 0.76516 3.17982 H
atom 5.52722 6.26759 10.15539 H
atom 8.54873 5.18525 6.70975 H
atom 2.64717 1.84750 6.62546 H
atom 6.99103 5.01365 6.75800 H
atom 4.20486 2.01910 6.57721 H
atom 7.91714 3.75057 6.69030 H
atom 3.27876 3.28219 6.64491 H
atom 6.53878 1.46703 10.23707 C
atom 4.65712 5.56572 3.09813 C
atom 6.83318 2.22587 8.89590 C
atom 4.36272 4.80689 4.43930 C
atom 7.42636 3.51567 9.27548 C
atom 3.76954 3.51708 4.05972 C
atom 7.48224 3.53326 10.68173 C
atom 3.71366 3.49950 2.65347 C
atom 6.99199 2.36019 1.41898 C
atom 4.20390 4.67256 11.91623 C
atom 6.99511 2.25892 2.78592 C
atom 4.20079 4.77383 10.54929 C
atom 7.47728 3.37010 3.50656 C
atom 3.71861 3.66266 9.82864 C
atom 7.94273 4.51433 2.91081 C
atom 3.25317 2.51843 10.42440 C
atom 7.96763 4.63177 11.40182 C
atom 3.22827 2.40098 1.93339 C
atom 8.43651 5.72607 10.63568 C
atom 2.75939 1.30669 2.69953 C
atom 8.38998 5.68880 9.27738 C
atom 2.80591 1.34396 4.05783 C
atom 7.88148 4.59802 8.54321 C
atom 3.31442 2.43474 4.79199 C
atom 6.53529 1.02116 3.50466 C
atom 4.66061 6.01160 9.83055 C
atom 7.82991 4.64091 7.03921 C
atom 3.36599 2.39184 6.29600 C
atom 6.03415 0.36922 0.39387 O
atom 5.16175 6.66354 12.94134 O
atom 6.58147 1.76944 7.79913 O
atom 4.61442 5.26331 5.53608 O
