lattice_vector 9.381712 0.0 -2.829112
lattice_vector 0.0 5.9064 0.0
lattice_vector 0.0 0.0 10.755
atom 5.55960 1.15943 5.74119 H
atom 8.51297 4.11263 6.14764 H
atom 3.82211 4.74697 2.18470 H
atom 0.86875 1.79377 1.77825 H
atom 1.10329 3.18414 4.08868 H
atom 3.58757 0.23094 -0.12573 H
atom 8.27842 2.72226 3.83721 H
atom 5.79415 5.67546 8.05162 H
atom 1.22900 4.88400 5.67585 H
atom 3.46185 1.93080 9.04210 H
atom 8.15271 1.02240 2.25004 H
atom 5.91986 3.97560 -1.11621 H
atom 3.05938 5.02812 7.10388 H
atom 1.63148 2.07492 7.61406 H
atom 6.32234 0.87828 0.82200 H
atom 7.75023 3.83148 0.31183 H
atom 4.79218 3.46824 7.01692 H
atom 9.28039 0.51504 4.87191 H
atom 4.58953 2.43816 0.90896 H
atom 0.10132 5.39136 3.05398 H
atom 4.38332 0.54575 4.22593 C
atom 0.30753 3.49895 10.49201 C
atom 4.99839 5.36065 3.69995 C
atom 9.07418 2.40745 -2.56612 C
atom 3.09221 1.13403 3.75617 C
atom 1.59864 4.08723 0.20678 C
atom 6.28950 4.77237 4.16972 C
atom 7.78307 1.81917 7.71911 C
atom 2.86030 2.28223 4.62111 C
atom 1.83056 5.23543 10.09683 C
atom 6.52142 3.62417 3.30478 C
atom 7.55115 0.67097 -2.17094 C
atom 1.83394 3.23316 4.67723 C
atom 2.85692 0.27996 -0.71429 C
atom 7.54777 2.67324 3.24866 C
atom 6.52479 5.62644 8.64017 C
atom 1.91668 4.24552 5.61560 C
atom 2.77417 1.29232 9.10234 C
atom 7.46503 1.66088 2.31029 C
atom 6.60754 4.61408 -1.17645 C
atom 3.01988 4.32644 6.47910 C
atom 1.67098 1.37324 8.23885 C
atom 6.36183 1.57996 1.44679 C
atom 7.71074 4.53316 -0.31296 C
atom 4.05346 3.40150 6.43941 C
atom 0.63739 0.44830 8.27854 C
atom 5.32825 2.50490 1.48648 C
atom 8.74432 5.45810 -0.35265 C
atom 3.95158 2.36788 5.50573 C
atom 0.73928 5.32108 9.21221 C
atom 5.43013 3.53852 2.42016 C
atom 8.64243 0.58532 -1.28632 C
atom 4.83496 1.31240 5.28376 N
atom 9.23761 4.26560 6.60507 N
atom 4.54675 4.59400 2.64213 N
atom 0.14410 1.64080 1.32082 N
atom 2.41945 0.68810 2.81353 O
atom 2.27141 3.64130 1.14942 O
atom 6.96226 5.21830 5.11236 O
atom 7.11031 2.26510 6.77647 O
