lattice_vector 7.9237 0.0 0.0
lattice_vector -3.038660770869425 7.904022059659198 0.0
lattice_vector -1.5624499302582053 -1.905917280255427 11.83512359615479
atom -1.41567 -0.43661 11.02560 H
atom 4.73826 6.43472 0.80952 H
atom -1.71192 4.49915 10.50722 H
atom 5.03451 1.49896 1.32790 H
atom -3.63039 5.39435 9.51781 H
atom 6.95298 0.60376 2.31732 H
atom 2.58602 4.03364 8.74497 H
atom 0.73657 1.96447 3.09015 H
atom 2.68878 1.70704 9.00298 H
atom 0.63381 4.29107 2.83214 H
atom 3.05575 -0.49636 10.17939 H
atom 0.26684 6.49446 1.65573 H
atom 4.26049 -1.49622 10.51314 H
atom -0.93790 7.49432 1.32198 H
atom 1.90526 6.47453 8.23370 H
atom 1.41733 -0.47643 3.60143 H
atom 3.73099 -0.43634 7.90231 H
atom -0.40840 6.43444 3.93281 H
atom 0.31542 4.79359 8.87516 H
atom 3.00716 1.20452 2.95996 H
atom -0.87165 5.78191 8.46093 H
atom 4.19424 0.21620 3.37419 H
atom 1.06300 4.87015 6.58861 H
atom 2.25958 1.12795 5.24651 H
atom -0.27280 5.67369 6.23711 H
atom 3.59539 0.32441 5.59801 H
atom -1.54209 3.75072 7.01704 H
atom 4.86468 2.24739 4.81808 H
atom -0.72058 3.49751 5.66902 H
atom 4.04317 2.50059 6.16610 H
atom 0.99613 2.41340 6.95787 H
atom 2.32646 3.58471 4.87725 H
atom 0.10150 2.60533 8.26920 H
atom 3.22109 3.39278 3.56592 H
atom -0.73765 1.03732 6.02526 H
atom 4.06024 4.96079 5.80986 H
atom -1.54472 1.16916 7.40050 H
atom 4.86731 4.82894 4.43462 H
atom 1.02432 -0.08175 7.18274 H
atom 2.29827 6.07986 4.65239 H
atom -0.35336 -0.88254 7.33068 H
atom 3.67595 6.88065 4.50445 H
atom 0.18115 0.01896 8.54023 H
atom 3.14144 5.97915 3.29490 H
atom -1.84922 0.36121 10.74393 C
atom 5.17180 5.63689 1.09120 C
atom -1.30222 1.64613 10.86346 C
atom 4.62481 4.35198 0.97166 C
atom -2.32036 2.54690 10.31549 C
atom 5.64295 3.45120 1.51963 C
atom -2.40889 3.93336 10.19714 C
atom 5.73147 2.06475 1.63798 C
atom -3.54903 4.45275 9.61249 C
atom 6.87162 1.54536 2.22264 C
atom 3.34345 3.63733 9.15920 C
atom -0.02086 2.36077 2.67592 C
atom 3.39636 2.26740 9.29767 C
atom -0.07377 3.73071 2.53745 C
atom 4.53963 1.75221 9.89061 C
atom -1.21704 4.24590 1.94451 C
atom -0.05837 1.90452 11.41853 C
atom 3.38096 4.09359 0.41660 C
atom 2.55152 2.91330 0.07930 C
atom 0.77107 3.08481 11.75583 C
atom 3.98336 -0.74164 9.93559 C
atom -0.66077 6.73975 1.89954 C
atom 4.01709 -1.18655 8.48223 C
atom -0.69450 7.18465 3.35289 C
atom 0.05915 5.51924 8.25145 C
atom 3.26344 0.47887 3.58368 C
atom 0.11523 4.99497 6.84425 C
atom 3.20736 1.00313 4.99087 C
atom -0.63016 3.66668 6.64069 C
atom 3.95275 2.33142 5.19444 C
atom 0.06526 2.46576 7.29044 C
atom 3.25733 3.53235 4.54469 C
atom -0.63775 1.14527 7.00403 C
atom 3.96034 4.85283 4.83110 C
atom 0.12172 -0.05795 7.56501 C
atom 3.20087 6.05606 4.27011 C
atom 4.86699 0.40492 10.18294 N
atom -1.54440 5.59319 1.65218 N
atom 2.67990 1.69459 0.16214 O
atom 0.64269 4.30351 11.67298 O
