lattice_vector 4.410283 0.0 -0.72822
lattice_vector 0.0 23.896 0.0
lattice_vector 0.0 0.0 9.34
atom 0.61876 9.57513 8.87918 H
atom 0.61876 14.32087 4.20917 H
atom 2.82390 21.52313 8.51507 H
atom 2.82390 2.37287 3.84506 H
atom 3.97763 8.01233 3.50325 H
atom 3.97763 15.88367 8.17325 H
atom 1.77249 19.96033 3.86736 H
atom 1.77249 3.93567 8.53736 H
atom 3.39945 9.42936 3.03459 H
atom 3.39945 14.46664 7.70459 H
atom 1.19430 21.37736 3.39870 H
atom 1.19430 2.51864 8.06870 H
atom 0.96012 11.25502 3.45511 H
atom 0.96012 12.64098 8.12511 H
atom 3.16526 23.20302 3.09100 H
atom 3.16526 0.69298 7.76100 H
atom 2.58002 12.34467 4.71473 H
atom 2.58002 11.55133 0.04473 H
atom 0.37487 0.39667 5.07884 H
atom 0.37487 23.49933 0.40884 H
atom 3.46384 11.32670 6.62546 H
atom 3.46384 12.56930 1.95546 H
atom 1.25869 23.27470 6.98957 H
atom 1.25869 0.62130 2.31957 H
atom 2.70747 9.19996 7.25004 H
atom 2.70747 14.69604 2.58004 H
atom 0.50233 21.14796 7.61415 H
atom 0.50233 2.74804 2.94415 H
atom 1.11448 8.10552 5.97384 H
atom 1.11448 15.79048 1.30384 H
atom 3.31962 20.05352 5.60973 H
atom 3.31962 3.84248 0.93973 H
atom 1.07170 6.38979 3.58706 H
atom 1.07170 17.50621 8.25706 H
atom 3.27684 18.33779 3.22295 H
atom 3.27684 5.55821 7.89295 H
atom 1.93170 5.98595 2.16548 H
atom 1.93170 17.91005 6.83548 H
atom 4.13685 17.93395 1.80137 H
atom 4.13685 5.96205 6.47137 H
atom 1.00731 7.59319 1.98094 C
atom 1.00731 16.30281 6.65094 C
atom 3.21245 19.54119 1.61683 C
atom 3.21245 4.35481 6.28683 C
atom 1.29089 7.88616 0.61064 C
atom 1.29089 16.00984 5.28064 C
atom 3.49603 19.83416 0.24653 C
atom 3.49603 4.06184 4.91653 C
atom 0.61523 9.12039 0.37382 C
atom 0.61523 14.77561 5.04382 C
atom 2.82038 21.06839 0.00971 C
atom 2.82038 2.82761 4.67971 C
atom 4.21314 8.86589 3.05808 C
atom 4.21314 15.03011 7.72808 C
atom 2.00800 20.81389 3.42219 C
atom 2.00800 3.08211 8.09219 C
atom 0.86001 9.56652 4.59805 C
atom 0.86001 14.32948 -0.07195 C
atom 3.06515 21.51452 4.23394 C
atom 3.06515 2.38148 -0.43606 C
atom 1.31603 10.83492 4.22854 C
atom 1.31603 13.06108 8.89854 C
atom 3.52117 22.78292 3.86443 C
atom 3.52117 1.11308 8.53443 C
atom 2.27747 11.48227 4.97670 C
atom 2.27747 12.41373 0.30670 C
atom 0.07233 23.43027 5.34081 C
atom 0.07233 0.46573 0.67081 C
atom 2.80406 10.88176 6.10675 C
atom 2.80406 13.01424 1.43675 C
atom 0.59892 22.82976 6.47086 C
atom 0.59892 1.06624 1.80086 C
atom 2.35509 9.61934 6.47323 C
atom 2.35509 14.27666 1.80323 C
atom 0.14995 21.56734 6.83734 C
atom 0.14995 2.32867 2.16734 C
atom 1.40291 8.97343 5.71887 C
atom 1.40291 14.92257 1.04887 C
atom 3.60805 20.92143 5.35476 C
atom 3.60805 2.97457 0.68476 C
atom 0.22581 8.58798 2.42567 N
atom 0.22581 15.30802 7.09567 N
atom 2.43095 20.53598 2.06156 N
atom 2.43095 3.36002 6.73156 N
atom 4.40146 9.55434 0.70599 N
atom 4.40146 14.34166 5.37599 N
atom 2.19632 21.50234 1.07010 N
atom 2.19632 2.39366 5.74010 N
atom 1.43643 6.56829 2.70959 N
atom 1.43643 17.32771 7.37959 N
atom 3.64157 18.51629 2.34548 N
atom 3.64157 5.37971 7.01548 N
atom 1.99918 7.20154 -0.28340 N
atom 1.99918 16.69446 4.38660 N
atom 4.20432 19.14954 -0.64751 N
atom 4.20432 4.74646 4.02249 N
atom 2.56458 6.13028 0.16870 O
atom 2.56458 17.76572 4.83870 O
atom 0.35944 18.07828 0.53281 O
atom 0.35944 5.81772 5.20281 O
