lattice_vector 6.867531 0.0 -0.446029
lattice_vector -0.546261 7.295211 -1.114223
lattice_vector 0.0 0.0 14.123
atom 1.24160 4.60474 1.41239 H
atom 5.07967 2.69047 11.15036 H
atom 0.84422 5.05996 -0.73222 H
atom 5.47705 2.23525 13.29497 H
atom 5.22337 5.38460 0.89248 H
atom 1.09790 1.91062 11.67027 H
atom -0.18047 6.66563 11.02369 H
atom 6.50174 0.62958 1.53905 H
atom 6.15117 7.14566 8.45085 H
atom 0.17010 0.14955 4.11190 H
atom 3.93375 6.95161 7.71593 H
atom 2.38752 0.34360 4.84682 H
atom 2.33393 6.28701 9.19282 H
atom 3.98734 1.00820 3.36993 H
atom 5.71191 3.37258 2.25401 H
atom 0.60936 3.92263 10.30874 H
atom 0.78666 3.44407 3.94527 H
atom 5.53461 3.85114 8.61748 H
atom 6.04472 6.18269 5.87531 H
atom 0.27655 1.11252 6.68743 H
atom 4.09504 6.09077 4.71005 H
atom 2.22623 1.20444 7.85270 H
atom 1.33664 4.51865 6.89951 H
atom 4.98463 2.77656 5.66324 H
atom 1.66203 5.87775 6.18824 H
atom 4.65924 1.41746 6.37450 H
atom 2.17228 4.52960 5.57244 H
atom 4.14899 2.76561 6.99030 H
atom 3.32035 4.92646 1.43994 C
atom 3.00092 2.36876 11.12281 C
atom 1.95063 4.84840 0.86188 C
atom 4.37064 2.44681 11.70086 C
atom 1.71499 5.11540 -0.41054 C
atom 4.60628 2.17981 12.97329 C
atom 2.76407 5.48600 12.82045 C
atom 3.55720 1.80921 -0.25771 C
atom 4.35932 5.30362 0.55744 C
atom 1.96195 1.99159 12.00531 C
atom 5.79991 6.59049 10.30676 C
atom 0.52136 0.70472 2.25599 C
atom 5.48759 6.87282 9.04255 C
atom 0.83368 0.42239 3.52020 C
atom 4.15694 6.75901 8.59752 C
atom 2.16433 0.53620 3.96522 C
atom 4.14486 5.55384 -0.76456 C
atom 2.17641 1.74137 13.32730 C
atom 4.83724 6.18488 11.24528 C
atom 1.48403 1.11033 1.31747 C
atom 3.21801 6.36653 9.47453 C
atom 3.10326 0.92868 3.08822 C
atom 5.76352 3.93066 2.99596 C
atom 0.55775 3.36455 9.56679 C
atom 0.07204 3.99048 4.18238 C
atom 6.24923 3.30473 8.38037 C
atom 0.20234 4.83672 5.26078 C
atom 6.11893 2.45849 7.30197 C
atom 5.98079 5.60564 5.14845 C
atom 0.34048 1.68957 7.41430 C
atom 4.81049 5.55166 4.45055 C
atom 1.51078 1.74356 8.11220 C
atom 4.66392 4.70249 3.36096 C
atom 1.65735 2.59272 9.20179 C
atom 1.45379 4.95345 6.04944 C
atom 4.86748 2.34176 6.51331 C
atom 3.39506 4.66237 2.72377 N
atom 2.92621 2.63284 9.83898 N
atom 2.48522 5.73404 11.59196 N
atom 3.83605 1.56118 0.97079 N
atom 5.15012 5.91350 12.50208 N
atom 1.17115 1.38171 0.06067 N
atom 3.53673 6.08129 10.77691 N
atom 2.78454 1.21392 1.78584 N
