lattice_vector 6.563331 0.0 -2.6715
lattice_vector 0.0 21.9228 0.0
lattice_vector 0.0 0.0 8.0627
atom 4.44863 4.61694 -0.76098 H
atom 5.39637 15.57834 0.78508 H
atom 2.11471 17.30586 6.15218 H
atom 1.16696 6.34446 4.60612 H
atom 3.00141 4.98086 6.81038 H
atom 0.28025 15.94226 3.94792 H
atom 3.56192 16.94194 -1.41918 H
atom 6.28308 5.98054 1.44328 H
atom 3.80279 6.38392 5.18610 H
atom 6.04220 17.34532 2.90070 H
atom 2.76054 15.53888 0.20510 H
atom 0.52113 4.57748 2.49050 H
atom 4.61730 6.75003 -1.58511 H
atom 5.22769 17.71143 1.60921 H
atom 1.94603 15.17277 6.97631 H
atom 1.33564 4.21137 3.78199 H
atom 6.28176 6.46065 4.84305 H
atom 3.56323 17.42205 3.24375 H
atom 0.28157 15.46215 0.54815 H
atom 3.00010 4.50075 2.14745 H
atom 3.40177 3.82334 4.78575 H
atom 6.44322 14.78474 3.30105 H
atom 3.16156 18.09946 0.60545 H
atom 0.12011 7.13806 2.09015 H
atom 3.53304 2.85435 6.01267 H
atom 6.31196 13.81575 2.07413 H
atom 3.03029 19.06845 -0.62147 H
atom 0.25138 8.10705 3.31707 H
atom 0.39643 4.41744 7.03138 H
atom 2.88524 15.37884 3.72692 H
atom 6.16691 17.50536 -1.64018 H
atom 3.67809 6.54396 1.66428 H
atom 4.36002 19.14957 4.96010 H
atom 5.48498 8.18817 3.12670 H
atom 2.20331 2.77323 0.43110 H
atom 1.07836 13.73463 2.26450 H
atom 5.63265 3.61726 2.56671 H
atom 4.21235 14.57866 5.52009 H
atom 0.93068 18.30554 2.82449 H
atom 2.35099 7.34414 -0.12889 H
atom 4.59105 19.89494 2.77298 H
atom 5.25395 8.93354 5.31382 H
atom 1.97228 2.02786 2.61822 H
atom 1.30938 12.98926 0.07738 H
atom 4.57267 20.65785 -1.35328 H
atom 5.27232 9.69645 1.37738 H
atom 1.99066 1.26495 6.74448 H
atom 1.29101 12.22635 4.01382 H
atom 5.81249 2.82585 -2.16996 H
atom 4.03251 13.78725 2.19406 H
atom 0.75085 19.09695 7.56116 H
atom 2.53082 8.13555 3.19714 H
atom 4.98551 0.96899 -1.76401 H
atom 4.85949 11.93039 1.78811 H
atom 1.57782 20.95381 7.15521 H
atom 1.70384 9.99241 3.60309 H
atom 3.91122 4.81425 -1.54451 C
atom 5.93378 15.77565 1.56861 C
atom 2.65211 17.10855 6.93571 C
atom 0.62955 6.14715 3.82259 C
atom 4.45913 6.05486 5.82020 C
atom 5.38587 17.01626 2.26660 C
atom 2.10420 15.86794 -0.42900 C
atom 1.17746 4.90654 3.12460 C
atom 5.74114 5.74882 5.09769 C
atom 4.10385 16.71022 2.98911 C
atom 0.82219 16.17398 0.29351 C
atom 2.45948 5.21258 2.40209 C
atom 3.93281 3.61989 5.57147 C
atom 5.91218 14.58129 2.51533 C
atom 2.63052 18.30291 -0.18027 C
atom 0.65115 7.34151 2.87587 C
atom 6.14715 4.51610 4.80117 C
atom 3.69785 15.47750 3.28563 C
atom 0.41618 17.40670 0.59003 C
atom 2.86548 6.44530 2.10557 C
atom 4.53198 20.04621 4.78642 C
atom 5.31302 9.08481 3.30038 C
atom 2.03135 1.87659 0.60478 C
atom 1.25031 12.83799 2.09082 C
atom 5.45505 2.71492 2.70931 C
atom 4.38995 13.67632 5.37749 C
atom 1.10828 19.20788 2.68189 C
atom 2.17338 8.24648 0.01371 C
atom 5.34235 1.84152 1.55456 C
atom 4.50264 12.80292 -1.53046 C
atom 1.22098 20.08129 3.83664 C
atom 2.06069 9.11988 6.92166 C
atom 4.66738 20.49541 3.47900 C
atom 5.17762 9.53401 4.60780 C
atom 1.89595 1.42739 1.91220 C
atom 1.38572 12.38879 0.78340 C
atom 4.65649 20.95425 5.83235 C
atom 5.18851 9.99285 2.25445 C
atom 1.90684 0.96855 -0.44115 C
atom 1.37482 11.92995 3.13675 C
atom 5.07490 0.34682 1.81718 C
atom 4.77010 11.30822 -1.79308 C
atom 1.48843 21.57598 3.57402 C
atom 1.79323 10.61458 7.18428 C
atom 5.36808 3.26562 5.13779 C
atom 4.47691 14.22702 2.94901 C
atom 1.19525 18.65718 0.25341 C
atom 2.08642 7.69578 2.44219 C
atom 4.90504 0.37839 5.58564 C
atom 4.93996 11.33979 2.50116 C
atom 1.65829 21.54441 -0.19444 C
atom 1.62337 10.58301 2.89004 C
atom 5.31341 2.27888 3.98604 C
atom 4.53159 13.24028 4.10076 C
atom 1.24992 19.64392 1.40516 C
atom 2.03174 8.68252 1.29044 C
atom 4.91731 21.84212 3.22037 C
atom 4.92768 10.88072 4.86643 C
atom 1.64602 0.08068 2.17083 C
atom 1.63565 11.04208 0.52477 C
atom 5.03519 0.85280 4.27432 C
atom 4.80981 11.81420 3.81248 C
atom 1.52814 21.07000 1.11688 C
atom 1.75353 10.10860 1.57872 C
atom 5.44245 2.24007 0.40302 O
atom 4.40255 13.20147 -0.37892 O
atom 1.12089 19.68273 4.98818 O
atom 2.16078 8.72133 5.77012 O
atom 5.02469 21.49794 0.87638 O
atom 4.82031 10.53654 -0.85228 O
atom 1.53864 0.42486 4.51482 O
atom 1.74302 11.38626 6.24348 O
