lattice_vector 5.107211 0.0 0.518862
lattice_vector -0.022643 9.992136 2.576522
lattice_vector 0.0 0.0 10.983
atom 4.56268 3.64913 4.07090 H
atom 0.75554 2.40011 4.92025 H
atom 4.65387 8.70915 6.53380 H
atom 0.35376 7.73591 4.06652 H
atom 4.59041 8.31745 13.45758 H
atom 2.83975 9.85624 13.29356 H
atom 0.86235 1.91549 11.24646 H
atom 3.88609 5.17593 2.90472 H
atom 2.78557 4.01184 2.77694 H
atom 2.29624 4.71629 11.54167 H
atom 3.39933 5.87238 11.66106 H
atom 1.21304 6.72571 12.02930 H
atom 2.13593 6.94553 2.33573 H
atom 1.06100 5.75947 2.31361 H
atom 2.00547 1.18607 9.28197 H
atom 3.29626 2.45007 10.67179 H
atom 2.07181 6.16615 9.29228 H
atom 2.95938 7.09741 7.33833 H
atom 2.14602 6.54785 5.23687 H
atom 0.39321 4.97808 5.01061 H
atom 3.45093 2.93569 6.01875 H
atom 0.28316 0.80637 8.02602 H
atom 1.36783 9.63741 10.68556 H
atom 4.79134 0.10891 6.35454 H
atom 0.81110 8.98393 8.43618 H
atom 3.72113 8.10762 9.46777 H
atom 3.75136 8.96295 10.82064 H
atom 4.80562 7.77988 10.59935 H
atom 0.06186 2.90072 1.87738 C
atom 0.79864 2.30918 3.97530 C
atom 1.67555 1.40689 3.41526 C
atom 3.23864 9.84625 5.58520 C
atom 4.28206 8.93597 5.68911 C
atom 4.75882 8.37341 4.53250 C
atom 4.23302 8.71714 3.25862 C
atom 3.20542 9.63042 3.15818 C
atom 2.73184 0.22882 1.75450 C
atom 1.73322 1.20205 1.97891 C
atom 0.88261 1.99243 1.21015 C
atom 3.43703 4.56041 2.27190 C
atom 2.73404 5.34379 12.16984 C
atom 1.69465 6.27606 12.75516 C
atom 2.63197 1.93048 7.62121 C
atom 3.34866 2.54000 9.72723 C
atom 4.22301 3.44229 9.17577 C
atom 0.69191 5.00806 8.29198 C
atom 1.73324 5.92634 8.43707 C
atom 2.24834 6.47091 7.27135 C
atom 1.76850 6.14117 6.00735 C
atom 0.73130 5.20890 5.86785 C
atom 0.20708 4.62936 7.02911 C
atom 4.29049 3.64213 7.75919 C
atom 3.45725 2.85176 6.96423 C
atom 0.92176 0.26579 7.49669 C
atom 0.16034 9.47554 8.99557 C
atom 4.30043 8.49432 10.15800 C
atom 0.00430 3.06059 3.19561 N
atom 2.61007 0.55157 4.00116 N
atom 2.55776 1.77460 8.93094 N
atom 0.03010 4.29762 9.27258 N
atom 4.40472 3.71707 1.62538 O
atom 1.87333 1.12511 6.83436 O
