lattice_vector 7.299186 0.0 -0.482252
lattice_vector -0.645813 7.253312 -2.684308
lattice_vector 0.0 0.0 11.2261
atom 1.44315 6.27847 5.21161 H
atom 5.21022 0.97485 2.84793 H
atom 0.69904 4.54420 3.95159 H
atom 5.95434 2.70911 4.10795 H
atom 4.22927 4.63051 1.85605 H
atom 2.42411 2.62280 6.20349 H
atom 4.93857 6.32126 3.19647 H
atom 1.71480 0.93205 4.86307 H
atom 6.20256 1.37233 9.37869 H
atom 0.45082 5.88099 -1.31915 H
atom 5.47061 2.46903 8.45904 H
atom 1.18276 4.78428 -0.39950 H
atom 0.49918 2.81283 8.90634 H
atom 6.15419 4.44048 -0.84680 H
atom -0.01452 2.41753 7.44315 H
atom 6.66789 4.83578 0.61639 H
atom 0.71412 1.32518 8.35802 H
atom 5.93926 5.92813 -0.29848 H
atom 1.62744 0.97049 -0.18725 H
atom 5.02593 6.28282 8.24679 H
atom 3.85940 2.11144 -0.54925 H
atom 2.79397 5.14187 8.60879 H
atom 4.48820 2.65689 0.81733 H
atom 2.16517 4.59642 7.24221 H
atom 3.77324 3.66945 -0.19418 H
atom 2.88014 3.58386 8.25372 H
atom 2.00459 5.92451 4.53187 C
atom 4.64879 1.32881 3.52767 C
atom 1.92119 3.27052 1.97201 C
atom 4.73219 3.98279 6.08753 C
atom 1.56281 4.90179 3.78253 C
atom 5.09057 2.35152 4.27701 C
atom 2.36571 4.32805 2.72042 C
atom 4.28767 2.92526 5.33912 C
atom 4.29932 0.28578 7.85295 C
atom 2.35405 6.96753 0.20659 C
atom 3.65672 4.94531 2.54563 C
atom 2.99666 2.30800 5.51391 C
atom 4.07253 5.95642 3.33136 C
atom 2.58085 1.29689 4.72818 C
atom 0.40662 1.70453 1.40014 C
atom 6.24675 5.54878 6.65940 C
atom 2.44897 2.53213 0.86874 C
atom 4.20440 4.72118 7.19080 C
atom 6.09048 1.69655 8.45143 C
atom 0.56289 5.55676 -0.39189 C
atom 0.11104 2.09766 8.36115 C
atom 6.54234 5.15565 -0.30161 C
atom 1.53594 1.59645 0.52196 C
atom 5.11743 5.65686 7.53758 C
atom 3.75469 2.76279 0.17599 C
atom 2.89868 4.49053 7.88355 C
atom 3.26698 6.47793 4.33582 N
atom 3.38640 0.77538 3.72372 N
atom 0.66163 2.73450 2.28886 O
atom 5.99175 4.51881 5.77068 O
atom 5.56653 0.63757 7.60486 O
atom 1.08685 6.61575 0.45468 O
atom 3.57291 0.79569 8.65088 O
atom 3.08047 6.45762 -0.59134 O
atom 6.65243 1.09090 0.99288 O
atom 0.00095 6.16241 7.06666 O
