lattice_vector 9.518564 0.0 -2.695994
lattice_vector -3.550472 9.827594 -2.46895
lattice_vector 0.0 0.0 14.794
atom 3.02187 2.93845 3.37187 H
atom 2.94622 6.88914 6.25719 H
atom -0.75484 6.51569 6.60903 H
atom 6.72294 3.31190 3.02002 H
atom 0.83158 9.61237 -0.39708 H
atom 5.13651 0.21522 10.02614 H
atom -1.47274 8.13921 8.29917 H
atom 7.44083 1.68838 1.32989 H
atom 1.54576 6.12849 10.94083 H
atom 4.42233 3.69911 -1.31178 H
atom 5.84384 9.50230 7.89154 H
atom 0.12425 0.32529 1.73751 H
atom 1.48379 2.07657 -0.57303 H
atom 4.48430 7.75102 10.20209 H
atom 1.13208 5.15261 8.91763 H
atom 4.83602 4.67499 0.71142 H
atom 2.93759 1.49871 11.26034 H
atom 3.03050 8.32889 -1.63128 H
atom 2.46743 5.03959 -0.05589 H
atom 3.50066 4.78800 9.68494 H
atom 0.30660 4.91871 4.76338 H
atom 5.66149 4.90888 4.86567 H
atom 1.48291 2.66917 9.97737 H
atom 4.48518 7.15842 -0.34832 H
atom -0.77447 2.39400 10.31016 H
atom 6.74256 7.43359 -0.68110 H
atom 7.93538 0.85697 9.10119 H
atom -1.96729 8.97063 0.52786 H
atom 0.61240 2.70750 4.00874 H
atom 5.35569 7.12009 5.62032 H
atom -0.60099 3.62638 2.08657 H
atom 6.56908 6.20121 7.54249 H
atom 1.03161 6.42135 -1.15704 H
atom 4.93648 3.40624 10.78610 H
atom -0.70270 3.63916 8.39535 H
atom 6.67079 6.18844 1.23371 H
atom 7.48522 4.95900 -1.74745 H
atom -1.51713 4.86859 11.37651 H
atom 0.36840 0.94050 5.47778 H
atom 5.59969 8.88709 4.15128 H
atom -0.30548 1.45154 7.66565 H
atom 6.27357 8.37606 1.96341 H
atom -1.19522 6.38302 -0.63705 H
atom 7.16331 3.44457 10.26610 H
atom 4.69174 2.73207 7.30355 H
atom 1.27635 7.09552 2.32551 H
atom 3.32130 3.09766 5.53272 H
atom 2.64679 6.72994 4.09634 H
atom 5.62731 0.64567 3.18268 H
atom 0.34078 9.18192 6.44638 H
atom 6.94460 0.23488 4.99934 H
atom -0.97651 9.59271 4.62971 H
atom 6.47582 1.28741 7.00868 H
atom -0.50773 8.54018 2.62038 H
atom -0.57860 8.37802 10.07851 C
atom 6.54669 1.44957 -0.44945 C
atom 3.81959 0.26141 1.50641 C
atom 2.14850 9.56618 8.12265 C
atom 2.39470 2.25052 1.23632 C
atom 3.57339 7.57708 8.39273 C
atom 2.64255 0.40785 -0.52281 C
atom 3.32555 9.41975 10.15186 C
atom -0.84421 7.74316 8.85885 C
atom 6.81230 2.08443 0.77021 C
atom -0.21966 6.51766 8.39625 C
atom 6.18775 3.30993 1.23281 C
atom 0.00314 9.50525 -2.22827 C
atom 5.96495 0.32235 11.85733 C
atom 0.92499 6.53732 10.38183 C
atom 5.04311 3.29028 -0.75278 C
atom 3.31975 1.49478 2.00340 C
atom 2.64834 8.33282 7.62566 C
atom 0.29866 7.76773 10.88167 C
atom 5.66943 2.05986 -1.25261 C
atom 0.18022 0.28893 12.42762 C
atom 5.78787 9.53866 -2.79856 C
atom -0.20884 4.54330 6.68572 C
atom 6.17693 5.28430 2.94334 C
atom 2.09308 1.63629 -0.02629 C
atom 3.87501 8.19130 9.65535 C
atom 0.68822 5.92800 9.17604 C
atom 5.27987 3.89959 0.45302 C
atom 2.02013 1.37979 11.34921 C
atom 3.94797 8.44780 -1.72015 C
atom 1.51809 0.49040 12.24227 C
atom 4.45000 9.33720 -2.61322 C
atom 1.55804 5.03271 0.13902 C
atom 4.41005 4.79488 9.49003 C
atom 0.17473 4.22193 5.36515 C
atom 5.79336 5.60566 4.26390 C
atom 1.17383 2.06773 10.61634 C
atom 4.79427 7.75987 -0.98729 C
atom 1.04775 4.18459 1.09824 C
atom 4.92034 5.64300 8.53081 C
atom -0.17650 1.88493 10.80749 C
atom 6.14459 7.94266 -1.17844 C
atom 8.85202 0.98079 9.00638 C
atom -2.88393 8.84680 0.62267 C
atom 0.37580 2.86180 4.89553 C
atom 5.59229 6.96580 4.73353 C
atom -0.28354 4.18361 1.41352 C
atom 6.25163 5.64399 8.21553 C
atom 0.71661 5.84152 -0.50185 C
atom 5.25148 3.98607 10.13091 C
atom -0.41302 3.49076 7.52251 C
atom 6.38112 6.33683 2.10654 C
atom -1.12203 4.97375 0.76215 C
atom 7.09012 4.85385 8.86691 C
atom 0.22042 1.81909 5.74313 C
atom 5.74767 8.00851 3.88592 C
atom -0.18313 2.14831 7.06066 C
atom 6.15122 7.67928 2.56840 C
atom 4.34813 1.87314 4.20429 C
atom 1.61996 7.95445 5.42477 C
atom -0.61581 5.81204 -0.18801 C
atom 6.58390 4.01555 9.81707 C
atom 4.84265 2.32226 6.48255 C
atom 1.12544 7.50533 3.14651 C
atom 4.05659 2.53257 5.45619 C
atom 1.91150 7.29502 4.17286 C
atom 5.44625 1.03091 4.00907 C
atom 0.52184 8.79668 5.61999 C
atom 6.21564 0.80881 5.06207 C
atom -0.24755 9.01878 4.56698 C
atom 5.91610 1.45350 6.28595 C
atom 0.05199 8.37409 3.34311 C
atom -1.16458 9.61532 10.57632 N
atom 7.13267 0.21228 -0.94726 N
atom -0.45555 5.92702 7.14810 N
atom 6.42364 3.90057 2.48096 N
atom 0.58021 8.34264 -2.68783 N
atom 5.38788 1.48495 12.31689 N
atom 3.52880 2.17288 3.19420 N
atom 2.43929 7.65471 6.43486 N
atom 1.91100 3.40231 1.80196 N
atom 4.05709 6.42528 7.82709 N
