lattice_vector 8.468297 0.0 -1.703817
lattice_vector 0.0 11.502 0.0
lattice_vector 0.0 0.0 9.89
atom 1.70297 9.92393 6.22037 H
atom 2.53117 4.17293 7.76272 H
atom 6.76532 1.57807 1.96582 H
atom 5.93712 7.32907 0.42346 H
atom 1.75802 11.42379 7.92323 H
atom 2.47613 5.67279 6.05986 H
atom 6.71028 0.07821 0.26295 H
atom 5.99217 5.82921 2.12632 H
atom 6.62390 2.76393 3.57271 H
atom 6.07854 8.51493 -1.18344 H
atom 1.84440 8.73807 4.61347 H
atom 2.38975 2.98707 9.36962 H
atom 7.87552 3.35858 5.94174 H
atom 4.82693 9.10958 6.33753 H
atom 0.59278 8.14342 2.24444 H
atom 3.64137 2.39242 1.84865 H
atom 5.81179 4.69052 6.15718 H
atom 6.89065 10.44152 6.12209 H
atom 2.65650 6.81148 2.02900 H
atom 1.57764 1.06048 2.06409 H
atom 5.61787 4.57895 4.57226 H
atom 7.08458 10.32995 7.70701 H
atom 2.85043 6.92305 3.61392 H
atom 1.38372 1.17205 0.47917 H
atom 7.53340 5.97069 4.26598 H
atom 5.16905 0.21969 8.01330 H
atom 0.93490 5.53131 3.92020 H
atom 3.29925 11.28231 0.17289 H
atom 6.34360 6.72637 5.01866 H
atom 6.35884 0.97537 7.26062 H
atom 2.12470 4.77563 3.16753 H
atom 2.10945 10.52663 0.92556 H
atom 0.14227 5.62218 8.06733 H
atom 4.09188 11.37318 5.91576 H
atom 8.32603 5.87982 0.11885 H
atom 4.37642 0.12882 2.27042 H
atom 7.43940 6.44112 7.08277 H
atom 5.26305 0.69012 5.19650 H
atom 1.02890 5.06088 1.10341 H
atom 3.20525 10.81188 2.98968 H
atom 0.82905 7.54531 6.90850 H
atom 3.40510 1.79431 7.07459 H
atom 7.63925 3.95669 1.27768 H
atom 5.06319 9.70769 1.11159 H
atom 8.06521 8.37461 5.79676 H
atom 4.63724 2.62361 6.48251 H
atom 0.40309 3.12739 2.38942 H
atom 3.83106 8.87839 1.70367 H
atom 0.52249 8.29524 9.64543 H
atom 3.71165 2.54424 4.33767 H
atom 7.94580 3.20676 -1.45924 H
atom 4.75664 8.95776 3.84852 H
atom 1.62591 8.87264 8.64013 H
atom 2.60824 3.12164 5.34296 H
atom 6.84238 2.62936 -0.45395 H
atom 5.86006 8.38036 2.84322 H
atom 1.70636 7.35093 9.12932 H
atom 2.52779 1.59993 4.85377 H
atom 6.76194 4.15107 -0.94314 H
atom 5.94051 9.90207 3.33241 H
atom 0.39725 10.92448 4.97386 C
atom 3.83690 5.17348 9.00923 C
atom 8.07105 0.57752 3.21232 C
atom 4.63140 6.32852 -0.82304 C
atom 1.18565 10.71779 6.14980 C
atom 3.04850 4.96679 7.83330 C
atom 7.28265 0.78421 2.03639 C
atom 5.41979 6.53521 0.35289 C
atom 1.22011 0.11007 7.16390 C
atom 3.01404 5.86107 6.81919 C
atom 7.24818 11.39193 1.02228 C
atom 5.45426 5.64093 1.36700 C
atom 0.47406 1.33055 7.13253 C
atom 3.76009 7.08155 6.85056 C
atom 7.99424 10.17145 1.05365 C
atom 4.70820 4.42045 1.33562 C
atom 8.08367 1.53276 4.30549 C
atom 4.61878 7.28376 7.97378 C
atom 0.38463 9.96924 3.88069 C
atom 3.84952 4.21824 0.21240 C
atom 7.22185 2.65432 4.30265 C
atom 5.48060 8.40532 7.97662 C
atom 1.24645 8.84768 3.88353 C
atom 2.98770 3.09668 0.20956 C
atom 6.29076 4.68327 5.29088 C
atom 6.41169 10.43427 6.98840 C
atom 2.17754 6.81873 2.89530 C
atom 2.05661 1.06773 1.19779 C
atom 7.01607 6.00565 5.10895 C
atom 5.68638 0.25465 7.17033 C
atom 1.45223 5.49635 3.07724 C
atom 2.78192 11.24735 1.01585 C
atom 7.95918 6.35808 6.24425 C
atom 4.74326 0.60708 6.03502 C
atom 0.50911 5.14392 1.94193 C
atom 3.72503 10.89492 2.15116 C
atom 0.24727 7.65665 7.70233 C
atom 3.98687 1.90565 6.28076 C
atom 8.22102 3.84535 0.48386 C
atom 4.48142 9.59635 1.90542 C
atom 1.10088 8.08131 8.88393 C
atom 3.13327 2.33031 5.09916 C
atom 7.36742 3.42069 -0.69775 C
atom 5.33503 9.17169 3.08702 C
atom 7.21008 3.54664 5.25861 N
atom 5.49237 9.29764 7.02066 N
atom 1.25822 7.95536 2.92757 N
atom 2.97593 2.20436 1.16552 N
atom 0.58211 2.18239 8.08930 O
atom 3.65204 7.93339 5.89379 O
atom 7.88619 9.31961 0.09688 O
atom 4.81626 3.56861 2.29240 O
