lattice_vector 9.115542 0.0 -0.239973
lattice_vector 0.0 5.06264 0.0
lattice_vector 0.0 0.0 6.6952
atom 3.11569 4.20199 3.63381 H
atom 5.99985 1.67067 6.16901 H
atom 5.99985 0.86065 2.82141 H
atom 3.11569 3.39197 0.28621 H
atom 4.25149 3.41728 4.52785 H
atom 4.86405 0.88596 5.27498 H
atom 4.86405 1.64536 1.92738 H
atom 4.25149 4.17668 1.18025 H
atom 1.19778 2.45487 3.71175 C
atom 7.91776 4.98619 6.09107 C
atom 7.91776 2.60777 2.74347 C
atom 1.19778 0.07645 0.36415 C
atom 2.63439 2.36324 4.14862 C
atom 6.48115 4.89456 5.65420 C
atom 6.48115 2.69940 2.30660 C
atom 2.63439 0.16808 0.80102 C
atom 0.84957 3.54385 3.00855 N
atom 8.26597 1.01253 0.09908 N
atom 8.26597 1.51879 3.44668 N
atom 0.84957 4.05011 6.35615 N
atom 0.39379 1.43931 4.06433 N
atom 8.72175 3.97063 5.73849 N
atom 8.72175 3.62333 2.39090 N
atom 0.39379 1.09201 0.71673 N
atom 3.40465 3.42538 4.09889 N
atom 5.71089 0.89406 5.70394 N
atom 5.71089 1.63726 2.35634 N
atom 3.40465 4.16858 0.75129 N
atom 3.12025 1.21554 4.58106 O
atom 5.99529 3.74686 5.22176 O
atom 5.99529 3.84710 1.87416 O
atom 3.12025 1.31578 1.23346 O
