lattice_vector 8.567642 0.0 2.542731
lattice_vector 3.957611 10.06905 1.414731
lattice_vector 0.0 0.0 15.546
atom 9.80501 7.02820 10.16969 P
atom 4.69732 10.03280 15.96992 P
atom 6.35327 0.29301 7.71606 P
atom 7.43520 7.82164 15.95710 P
atom 3.87052 6.35760 2.65596 H
atom 7.33757 1.14284 9.59239 H
atom 4.02568 1.43585 14.44466 H
atom 11.97789 8.99468 10.93920 H
atom 4.10951 2.41859 4.54354 H
atom 9.33453 9.27964 14.39001 H
atom 8.02062 6.38579 7.28667 H
atom 5.78642 6.29920 7.36619 H
atom 4.60918 4.36997 7.26771 H
atom 10.95104 6.65463 4.68670 H
atom 11.03417 7.52661 17.25603 H
atom 3.17163 6.46936 9.58838 H
atom 1.99040 0.00906 6.16417 H
atom 9.53864 8.26870 12.15986 H
atom 1.92364 2.02992 14.56098 H
atom 5.50005 5.65780 10.23518 H
atom 5.97006 8.78927 11.06810 H
atom 5.49848 8.29790 4.17879 H
atom 9.10013 5.11709 3.36538 H
atom 7.44135 1.68153 15.46734 H
atom 2.84655 7.15507 3.59145 H
atom 11.57240 9.46491 12.40333 H
atom 4.78686 0.35342 10.34627 H
atom 5.76990 1.37443 11.08834 H
atom 9.79437 9.14169 5.81432 H
atom 3.21643 0.61723 13.35480 H
atom 4.27543 4.34480 13.11596 H
atom 6.48045 2.06617 3.85519 H
atom 5.10743 1.77719 9.68875 H
atom 4.34465 6.18844 14.39618 H
atom 5.38633 0.16312 3.31874 H
atom 1.54435 1.79733 1.41065 H
atom 5.23846 4.01352 3.40401 H
atom 8.31807 2.44074 6.97770 H
atom 6.05989 3.58358 14.99234 H
atom 9.85727 3.81516 9.62974 H
atom 6.65206 8.65636 7.36374 H
atom 5.29794 6.71304 4.26491 H
atom 3.04584 7.54877 10.76296 H
atom 9.31852 8.67650 4.35924 H
atom 6.80350 9.80021 6.25447 H
atom 7.64846 4.98116 4.02730 H
atom 5.12857 4.74756 16.65742 H
atom 2.78565 2.13262 5.39682 H
atom 5.34632 8.15492 9.73766 H
atom 7.76964 4.53309 13.03039 H
atom 6.63682 7.38162 4.83212 H
atom 1.04700 1.09652 10.02826 H
atom 8.64433 6.13507 4.51361 H
atom 3.12817 1.58285 1.32370 H
atom 10.46671 6.45124 13.10084 H
atom 2.08618 1.86580 7.92518 H
atom 8.33652 9.61997 17.08210 H
atom 2.15599 0.31919 1.45276 H
atom 2.28053 3.46979 12.57921 H
atom 5.89842 0.38262 13.93220 H
atom 9.33221 4.43240 6.94998 H
atom 6.28763 4.72541 11.26907 H
atom 5.63062 6.09681 11.76905 H
atom 3.76479 3.32681 5.81695 H
atom 10.11717 8.92319 15.73931 H
atom 8.91247 4.65492 15.55357 H
atom 8.55644 2.59379 13.87990 H
atom 6.34084 9.40349 9.63820 H
atom 6.96210 1.69160 17.46758 C
atom 5.60388 3.94707 16.86644 C
atom 8.45785 6.82682 17.00329 C
atom 8.33882 5.60846 3.74035 C
atom 5.66898 3.52417 2.71172 C
atom 6.25684 5.47756 7.27011 C
atom 9.78492 6.06157 16.59537 C
atom 7.27382 7.67262 10.02926 C
atom 6.13923 8.57883 10.12612 C
atom 7.79540 6.51468 2.72389 C
atom 6.09548 7.81358 17.22894 C
atom 8.86405 9.49511 8.85017 C
atom 6.57233 7.28294 2.84561 C
atom 6.38697 2.38636 2.96451 C
atom 9.74305 4.97411 15.87298 C
atom 3.14004 7.00806 2.66922 C
atom 3.38774 0.68470 14.32758 C
atom 5.56052 4.35990 7.20625 C
atom 2.32391 4.29948 13.03317 C
atom 2.26094 1.21836 1.07162 C
atom 11.18257 9.46491 4.37628 C
atom 5.47968 1.03711 10.21686 C
atom 8.48003 8.12572 9.48705 C
atom 7.59144 5.53798 7.21214 C
atom 3.62291 8.36738 2.03812 C
atom 10.36948 7.98476 11.68144 C
atom 2.14821 1.12773 14.92014 C
atom 4.84221 8.54862 17.03620 C
atom 8.89798 4.48073 11.29640 C
atom 11.20292 9.23332 11.51241 C
atom 9.63450 3.56444 10.51995 C
atom 1.47706 2.40650 8.41335 C
atom 4.53737 1.42981 6.37254 C
atom 8.62625 5.86019 10.78849 C
atom 0.90816 1.98360 9.71751 C
atom 7.69322 0.41283 17.73957 C
atom 6.31339 3.07106 7.03206 C
atom 4.07882 0.08659 6.52932 C
atom 6.73931 9.62601 7.21688 C
atom 6.08423 5.64874 11.02241 C
atom 8.38323 4.36997 7.03995 C
atom 7.78641 3.22210 7.01267 C
atom 8.78409 2.83947 12.98947 C
atom 8.38640 4.00748 12.53397 C
atom 5.95366 7.43096 4.13308 C
atom 11.11586 7.02820 12.64345 C
atom 8.10087 9.51525 16.11733 C
atom 3.50610 5.89039 14.06558 C
atom 3.47345 4.78280 13.36876 C
atom 5.63611 1.76208 7.08121 C
atom 6.61279 0.45411 9.50699 C
atom 7.33336 6.36364 10.71061 C
atom 10.97800 6.65564 16.88901 C
atom 3.71718 2.41657 5.44221 C
atom 6.17374 3.28251 15.88797 C
atom 9.79326 9.37429 4.86191 C
atom 9.48357 9.54546 15.32048 C
atom 6.95235 2.12457 16.14895 C
atom 2.67553 6.36465 6.51445 S
atom 11.92062 9.79719 8.17260 S
atom 7.21355 7.16614 14.15318 S
atom 4.62817 9.80021 14.05190 S
