lattice_vector 9.072414 0.0 -0.68184
lattice_vector -1.979257 9.192115 -3.522107
lattice_vector 0.0 0.0 12.7079
atom 4.31195 4.27194 -0.08016 P
atom 2.78121 4.92017 8.58411 P
atom 4.06997 8.70034 1.79461 H
atom 3.02319 0.49178 6.70934 H
atom 6.34929 0.95874 4.71236 H
atom 0.74387 8.23338 3.79159 H
atom -0.01286 5.24226 3.68322 H
atom 7.10602 3.94985 4.82074 H
atom 3.23910 5.16873 3.21275 H
atom 3.85406 4.02339 5.29120 H
atom 6.50783 2.13533 9.17649 H
atom 0.58532 7.05679 -0.67254 H
atom 8.26040 2.58298 0.94771 H
atom -1.16724 6.60913 7.55624 H
atom 3.89744 6.62384 3.31542 H
atom 3.19572 2.56828 5.18853 H
atom 6.99419 5.92708 9.59035 H
atom 0.09897 3.26504 -1.08640 H
atom 1.29979 0.48167 12.38482 H
atom 5.79337 8.71045 -3.88087 H
atom 4.95981 2.74752 3.22178 H
atom 2.13335 6.44459 5.28217 H
atom 5.07677 1.44592 9.36620 H
atom 2.01639 7.74620 -0.86224 H
atom 5.21872 2.75855 8.46153 H
atom 1.87444 6.43356 0.04242 H
atom 6.87221 1.79982 1.08777 H
atom 0.22095 7.39230 7.41619 H
atom 0.63617 8.92738 -3.30415 H
atom 6.45699 0.26473 11.80810 H
atom 5.89093 7.44837 3.63947 H
atom 1.20223 1.74374 4.86449 H
atom 6.04602 5.12277 8.58240 H
atom 1.04713 4.06935 -0.07845 H
atom 7.37510 4.43611 9.14940 H
atom -0.28194 4.75600 -0.64545 H
atom 4.74239 1.97079 1.83910 H
atom 2.35077 7.22133 6.66486 H
atom 7.17179 7.60923 2.69361 H
atom -0.07864 1.58288 5.81034 H
atom 5.39569 9.16270 -0.68814 H
atom 1.69747 0.02941 9.19209 H
atom 7.28267 6.77827 4.05663 H
atom -0.18952 2.41385 4.44732 H
atom 3.26985 6.12563 1.92986 H
atom 3.82331 3.06649 6.57410 H
atom 7.16896 2.67582 -0.21840 H
atom -0.07580 6.51629 8.72235 H
atom 3.33328 9.17649 0.45639 H
atom 3.75987 0.01563 8.04757 H
atom -0.06130 5.90961 2.22962 H
atom 7.15445 3.28250 6.27433 H
atom 6.13672 8.68747 0.65575 H
atom 0.95644 0.50465 7.84821 H
atom 2.32781 0.68757 2.31444 H
atom 4.76534 8.50455 6.18951 H
atom 3.60388 2.94791 2.39477 H
atom 3.48927 6.24420 6.10918 H
atom 0.20801 4.33868 2.38052 H
atom 6.88515 4.85344 6.12343 H
atom 1.07750 1.53508 1.78530 H
atom 6.01565 7.65703 6.71866 H
atom -1.00803 9.13512 -1.61532 H
atom 8.10119 0.05699 10.11928 H
atom 6.31610 5.75610 2.57385 C
atom 0.77706 3.43601 5.93010 C
atom 3.75784 5.84802 2.73373 C
atom 3.33532 3.34409 5.77022 C
atom 3.75116 1.59400 11.70643 C
atom 3.34200 7.59811 -3.20248 C
atom 6.14737 0.02574 4.49015 C
atom 0.94579 9.16638 4.01380 C
atom 5.20647 3.97623 1.56593 C
atom 1.88668 5.21588 6.93803 C
atom 7.30107 2.61424 0.75050 C
atom -0.20791 6.57788 7.75345 C
atom 5.08677 5.27581 2.33854 C
atom 2.00638 3.91630 6.16541 C
atom 5.51773 5.18472 -1.05848 C
atom 1.57543 4.00739 9.56244 C
atom 6.69832 7.00623 3.30359 C
atom 0.39484 2.18588 5.20036 C
atom 5.92993 6.57034 -0.77092 C
atom 1.16323 2.62178 9.27487 C
atom 4.54203 2.83512 -1.14532 C
atom 2.55112 6.35699 9.64927 C
atom 5.28777 8.64427 0.14944 C
atom 1.80539 0.54785 8.35451 C
atom 7.32000 4.84792 1.99631 C
atom -0.22684 4.34419 6.50764 C
atom 4.57103 2.80451 2.32407 C
atom 2.52212 6.38760 6.17988 C
atom -0.27681 5.10714 2.74877 C
atom 7.36996 4.08498 5.75518 C
atom 1.56766 0.69125 1.69658 C
atom 5.52550 8.50087 6.80737 C
atom 5.54611 2.29987 9.26363 C
atom 1.54705 6.89225 -0.75968 C
atom 6.63551 5.04371 9.36086 C
atom 0.45764 4.14840 -0.85691 C
atom 5.29346 3.15510 10.46590 C
atom 1.79969 6.03701 -1.96195 C
atom 6.69938 3.79910 1.40831 C
atom 0.39378 5.39301 7.09564 C
atom 2.06367 0.55337 0.30252 C
atom 5.02949 8.63875 8.20143 C
atom 5.86067 4.50340 -2.18640 C
atom 1.23249 4.68871 10.69036 C
atom 3.86695 0.58223 11.06927 O
atom 3.22621 8.60989 -2.56531 O
atom 7.00455 7.04943 -1.04618 O
atom 0.08860 2.14268 9.55014 O
atom 2.85949 1.72729 -0.01171 O
atom 4.23367 7.46482 8.51567 O
atom 4.95828 7.26765 -0.15645 O
atom 2.13488 1.92446 8.66040 O
