lattice_vector 4.789273 0.0 -0.181223
lattice_vector 0.0 9.8612 0.0
lattice_vector 0.0 0.0 15.4094
atom 3.83094 5.00456 13.96543 H
atom 3.35297 0.07396 8.87684 H
atom 0.95833 4.85664 1.26275 H
atom 1.43630 9.78724 6.35134 H
atom 0.47174 2.08663 1.83436 H
atom 1.92289 7.01723 5.77973 H
atom 4.31753 7.77457 13.39382 H
atom 2.86638 2.84397 9.44845 H
atom 2.64464 2.44163 12.02250 H
atom 4.53927 7.37223 10.81976 H
atom 2.14464 7.41957 3.20567 H
atom 0.25000 2.48897 4.40842 H
atom 0.99042 9.43815 12.34552 H
atom 1.40421 4.50755 10.67797 H
atom 3.79885 0.42305 2.88266 H
atom 3.38506 5.35365 4.55021 H
atom 1.58094 0.94470 1.99887 H
atom 0.81370 5.87530 5.61521 H
atom 3.20833 8.91650 13.22930 H
atom 3.97558 3.98590 9.61296 H
atom 4.65661 0.70508 12.00031 H
atom 2.52730 5.63568 10.84196 H
atom 0.13266 9.15612 3.22787 H
atom 2.26197 4.22552 4.38622 H
atom 1.98084 2.48305 2.19023 H
atom 0.41379 7.41365 5.42386 H
atom 2.80843 7.37815 13.03795 H
atom 4.37548 2.44755 9.80432 H
atom 1.21216 0.78298 11.31702 H
atom 1.18247 5.71358 11.70646 H
atom 3.57711 9.07822 3.91115 H
atom 3.60680 4.14762 3.52171 H
atom 4.02059 4.29554 12.54367 H
atom 3.16331 9.22614 10.29860 H
atom 0.76868 5.56566 2.68451 H
atom 1.62596 0.63506 4.92958 H
atom 3.06992 3.46621 0.48788 H
atom 4.11399 8.39681 6.94498 H
atom 1.71935 6.39499 14.74029 H
atom 0.67529 1.46439 8.28320 H
atom 0.14655 3.86165 13.96462 H
atom 2.24808 8.79225 9.05887 H
atom 4.64272 5.99955 1.26356 H
atom 2.54119 1.06895 6.16931 H
atom 1.41379 1.85982 1.68977 C
atom 0.98084 6.79042 5.92432 C
atom 3.37548 8.00138 13.53841 C
atom 3.80843 3.07078 9.30386 C
atom 1.48544 1.33955 13.27477 C
atom 0.90920 6.27015 9.74872 C
atom 3.30383 8.52165 1.95341 C
atom 3.88008 3.59105 5.47946 C
atom 0.83190 0.53063 12.18479 C
atom 1.56274 5.46123 10.83870 C
atom 3.95738 9.33057 3.04339 C
atom 3.22653 4.39997 4.38947 C
atom 2.66566 2.92207 15.23210 C
atom 4.51825 7.85267 7.61016 C
atom 2.12361 6.93913 -0.00393 C
atom 0.27102 2.00853 7.61801 C
atom 4.04215 4.16083 13.51472 C
atom 3.14176 9.09143 9.32754 C
atom 0.74713 5.70037 1.71345 C
atom 1.64751 0.76977 5.90063 C
atom 1.14353 1.14636 14.63218 C
atom 1.25110 6.07696 8.39131 C
atom 3.64574 8.71484 0.59600 C
atom 3.53817 3.78424 6.83687 C
atom 3.02706 3.11742 13.89969 C
atom 4.15685 8.04802 8.94257 C
atom 1.76221 6.74378 1.32849 C
atom 0.63242 1.81318 6.28560 C
atom 2.41772 2.31718 12.93608 C
atom 4.76619 7.24778 9.90618 C
atom 2.37155 7.54402 2.29209 C
atom 0.02308 2.61342 5.32200 C
atom 1.73386 1.95942 0.22209 C
atom 0.66078 6.89002 7.39200 C
atom 3.05541 7.90178 15.00609 C
atom 4.12850 2.97118 7.83617 C
atom 0.20819 0.09112 14.82444 N
atom 2.18645 5.02172 8.19905 N
atom 4.58108 9.77008 0.40374 N
atom 2.60283 4.83948 7.02913 N
