lattice_vector 11.394 0.0 0.0
lattice_vector 0.0 5.1116 0.0
lattice_vector -3.119092680530988 0.0 16.694117222850032
atom 8.01119 2.11109 14.01972 H
atom 4.40117 4.66689 11.02146 H
atom 0.26372 3.00051 2.67440 H
atom 3.87373 0.44471 5.67266 H
atom 6.42419 3.92060 13.30521 H
atom 5.98817 1.36480 11.73596 H
atom 1.85072 1.19100 3.38891 H
atom 2.28674 3.74680 4.95815 H
atom 4.49024 0.00000 13.71589 H
atom 7.92212 2.55580 11.32529 H
atom 3.78467 0.00000 2.97823 H
atom 0.35279 2.55580 5.36883 H
atom 3.10280 4.73845 15.59231 H
atom 9.30956 2.18265 9.44887 H
atom 5.17211 0.37315 1.10181 H
atom -1.03465 2.92895 7.24525 H
atom 6.96728 2.99540 0.51919 H
atom 8.56418 0.43960 7.82787 H
atom 1.30763 2.11620 16.17493 H
atom -0.28927 4.67200 8.86625 H
atom 8.42457 1.29323 1.25707 H
atom 7.10688 3.84903 7.08999 H
atom -0.14966 3.81837 15.43705 H
atom 1.16803 1.26257 9.60413 H
atom -1.55586 1.47214 14.05979 H
atom 2.57422 4.02794 10.98139 H
atom 9.83077 3.63946 2.63433 H
atom 5.70068 1.08366 5.71273 H
atom -0.42030 0.37315 14.50719 H
atom 1.43866 2.92895 10.53399 H
atom 8.69520 4.73845 2.18693 H
atom 6.83625 2.18265 6.16013 H
atom 8.50968 4.93781 12.75431 H
atom 3.90268 2.38201 12.28687 H
atom -0.23477 0.17379 3.93981 H
atom 4.37222 2.72959 4.40725 H
atom -1.72531 3.92060 13.44210 H
atom 2.74367 1.36480 11.59907 H
atom 10.00021 1.19100 3.25201 H
atom 5.53124 3.74680 5.09504 H
atom -0.95065 0.96098 11.55233 H
atom 1.96901 3.51678 13.48885 H
atom 9.22556 4.15062 5.14179 H
atom 6.30590 1.59482 3.20527 H
atom 0.04852 4.98381 12.11993 H
atom 0.96984 2.42801 12.92125 H
atom 8.22639 0.12779 4.57419 H
atom 7.30507 2.68359 3.77287 H
atom -1.07152 4.38064 11.10159 H
atom 2.08989 1.82484 13.93959 H
atom 9.34643 0.73096 5.59253 H
atom 6.18502 3.28676 2.75453 H
atom -2.30372 0.28420 15.54389 C
atom 3.32208 2.84000 9.49728 C
atom 10.57863 4.82739 1.15022 C
atom 4.95282 2.27160 7.19683 C
atom 7.90071 0.98705 15.73921 C
atom 4.51165 3.54285 9.30196 C
atom 0.37420 4.12455 0.95490 C
atom 3.76326 1.56875 7.39216 C
atom 7.44124 1.98535 14.82605 C
atom 4.97112 4.54115 10.21513 C
atom 0.83367 3.12625 1.86807 C
atom 3.30378 0.57045 6.47899 C
atom 6.29622 2.71477 15.01469 C
atom 6.11615 0.15897 10.02649 C
atom 1.97869 2.39683 1.67943 C
atom 2.15876 4.95263 6.66763 C
atom 5.86989 3.72738 14.09484 C
atom 6.54247 1.17158 10.94633 C
atom 2.40501 1.38422 2.59927 C
atom 1.73244 3.94002 5.74778 C
atom 4.75705 4.46038 14.33691 C
atom 7.65531 1.90458 10.70427 C
atom 3.51786 0.65122 2.35721 C
atom 0.61959 3.20702 5.98985 C
atom 3.96063 4.20122 15.49548 C
atom 8.45173 1.64542 9.54570 C
atom 4.31428 0.91038 1.19864 C
atom -0.17683 3.46618 7.14842 C
atom 4.32038 3.25865 16.37526 C
atom 8.09198 0.70284 8.66592 C
atom 3.95453 1.85295 0.31886 C
atom 0.18292 4.40875 8.02820 C
atom 5.49160 2.48526 16.18662 C
atom 6.92076 5.04106 8.85456 C
atom 2.78330 2.62634 0.50750 C
atom 1.35415 0.07054 7.83956 C
atom 9.00379 1.50997 0.38897 C
atom 6.52767 4.06577 7.95809 C
atom -0.72888 3.60163 16.30514 C
atom 1.74724 1.04583 8.73603 C
atom 10.18483 0.73045 0.22704 C
atom 5.34662 3.28625 8.12002 C
atom -1.90993 4.38115 16.46708 C
atom 2.92829 1.82535 8.57410 C
atom -1.41508 0.53672 14.33691 C
atom 2.43344 3.09252 10.70427 C
atom 9.68999 4.57488 2.35721 C
atom 5.84146 2.01908 5.98985 C
atom -1.77284 4.79519 13.12325 C
atom 2.79120 2.23939 11.91793 C
atom 10.04774 0.31641 3.57087 C
atom 5.48371 2.87221 4.77619 C
atom -0.87436 5.06304 11.92461 C
atom 1.89272 2.50724 13.11657 C
atom 9.14927 0.04856 4.76951 C
atom 6.38219 2.60436 3.57755 C
