lattice_vector 4.896194 0.0 0.320914
lattice_vector 1.273085 10.820526 0.472454
lattice_vector 0.0 0.0 11.8787
atom 3.78854 6.85697 1.86920 H
atom 2.38074 3.96356 10.80287 H
atom 2.66451 7.69880 1.21047 H
atom 3.50477 3.12172 11.46160 H
atom 2.03197 4.17023 4.53925 H
atom 4.13731 6.65030 8.13282 H
atom 0.85202 5.12352 4.21465 H
atom 5.31726 5.69701 8.45741 H
atom 1.59402 4.38881 3.06801 H
atom 4.57526 6.43172 9.60406 H
atom 2.68463 6.27591 4.66248 H
atom 3.48465 4.54462 8.00959 H
atom 3.42662 5.54119 3.51583 H
atom 2.74266 5.27933 9.15624 H
atom 1.14264 8.77545 1.45946 H
atom 5.02664 2.04508 11.21260 H
atom 4.41095 10.31196 2.31810 H
atom 1.75832 0.50856 10.35396 H
atom 4.14345 8.70836 6.01084 H
atom 2.02582 2.11217 6.66122 H
atom 0.87871 7.17725 5.14550 H
atom 5.29057 3.64327 7.52656 H
atom 2.66761 10.38013 5.49788 H
atom 3.50167 0.44040 7.17419 H
atom 1.21228 5.50548 0.36054 C
atom 4.95700 5.31504 12.31153 C
atom 2.86449 6.88077 1.64912 C
atom 3.30479 3.93975 11.02294 C
atom 2.58522 5.86797 3.81097 C
atom 3.58406 4.95255 8.86109 C
atom 1.69565 4.80323 3.91633 C
atom 4.47363 6.01729 8.75574 C
atom 1.17499 7.78537 3.21730 C
atom 4.99429 3.03516 9.45477 C
atom 5.64836 8.74839 2.64590 C
atom 0.52092 2.07213 10.02617 C
atom 4.67979 9.67139 2.96602 C
atom 1.48949 1.14914 9.70604 C
atom 4.08347 9.68004 4.23391 C
atom 2.08581 1.14048 8.43816 C
atom 4.52312 8.72675 5.13955 C
atom 1.64616 2.09377 7.53252 C
atom 5.49256 7.80701 4.81485 C
atom 0.67672 3.01352 7.85722 C
atom 3.03374 10.57490 4.64273 C
atom 3.13553 0.24563 8.02934 C
atom 1.20594 0.81154 3.56492 C
atom 4.96334 10.00899 9.10715 C
atom 5.03548 1.53760 4.52505 C
atom 1.13380 9.28293 8.14702 C
atom 1.57882 1.30496 2.30638 C
atom 4.59046 9.51557 10.36569 C
atom 2.58694 5.76193 0.69387 C
atom 3.58234 5.05860 11.97820 C
atom 2.10943 6.83857 2.88221 N
atom 4.05985 3.98195 9.78986 N
atom 4.18879 2.12732 5.01579 N
atom 1.98049 8.69321 7.65627 N
atom 1.87998 1.72155 1.30052 N
atom 4.28930 9.09898 11.37155 N
