lattice_vector 8.934 0.0 0.0
lattice_vector 1.2790003125225355 10.85490940545186 0.0
lattice_vector -3.334514859505946 -1.872263104053511 7.076833862747801
atom 1.61116 4.08861 0.59658 H
atom 5.26732 4.89404 6.48026 H
atom 1.40010 1.51388 2.92273 H
atom 5.47838 7.46876 4.15410 H
atom 2.73245 2.13353 3.53063 H
atom 4.14604 6.84912 3.54620 H
atom 2.41468 3.70001 5.60627 H
atom 4.46381 5.28263 1.47057 H
atom 0.97367 4.19773 5.92826 H
atom 5.90481 4.78491 1.14857 H
atom 0.76117 1.63379 6.45761 H
atom 6.11732 7.34886 0.61922 H
atom 2.18897 1.31143 5.74356 H
atom 4.68951 7.67121 1.33328 H
atom 0.89118 0.62306 5.25596 H
atom 5.98730 8.35959 1.82087 H
atom -0.66886 3.35937 3.61555 H
atom 7.54735 5.62327 3.46128 H
atom -0.86637 1.89152 4.01044 H
atom 7.74486 7.09112 3.06639 H
atom -0.98428 3.03765 5.16397 H
atom 7.86276 5.94500 1.91287 H
atom 3.27804 1.14255 1.31063 H
atom 3.60044 7.84010 5.76620 H
atom 1.22940 8.16759 7.05985 H
atom 5.64908 0.81505 0.01698 H
atom -0.27423 8.04351 5.29276 H
atom 7.15272 0.93914 1.78407 H
atom 5.78557 0.75772 6.14198 H
atom 1.09292 8.22493 0.93485 H
atom 4.09194 -0.07544 4.90920 H
atom 2.78655 9.05809 2.16763 H
atom 4.31511 -0.65239 3.34805 H
atom 2.56337 9.63503 3.72878 H
atom 5.23471 0.56592 3.95383 H
atom 1.64378 8.41673 3.12301 H
atom 1.68543 5.05795 4.28927 C
atom 5.19306 3.92470 2.78756 C
atom 1.76043 4.78070 2.83852 C
atom 5.11805 4.20195 4.23832 C
atom 1.72849 3.42523 2.35729 C
atom 5.15000 5.55742 4.71954 C
atom 1.76456 2.29794 3.33177 C
atom 5.11392 6.68470 3.74506 C
atom 0.99100 2.60268 4.62117 C
atom 5.88748 6.37996 2.45566 C
atom 1.52666 3.89608 5.22624 C
atom 5.35182 5.08657 1.85059 C
atom 1.22830 1.45578 5.60414 C
atom 5.65019 7.52687 1.47269 C
atom -0.49886 2.71306 4.33527 C
atom 7.37734 6.26959 2.74157 C
atom 1.70449 2.01258 0.33615 C
atom 5.17399 6.97007 6.74068 C
atom 2.62212 1.02266 0.61498 C
atom 4.25637 7.95999 6.46186 C
atom 0.58053 8.87052 6.88930 C
atom 6.29795 0.11212 0.18754 C
atom -0.28352 8.74719 5.82919 C
atom 7.16200 0.23546 1.24765 C
atom -2.46450 -1.09224 5.54399 C
atom 9.34298 10.07488 1.53284 C
atom -2.49890 0.04408 6.33660 C
atom 9.37739 8.93857 0.74024 C
atom 4.74877 -0.26629 4.11659 C
atom 2.12972 9.24894 2.96024 C
atom 1.85916 5.87910 2.07988 N
atom 5.01933 3.10354 4.99695 N
atom 1.67384 3.24049 1.06153 N
atom 5.20465 5.74215 6.01531 N
atom 1.77994 6.19250 4.73157 O
atom 5.09854 2.79014 2.34526 O
atom 1.86687 5.73584 0.79968 O
atom 5.01162 3.24681 6.27715 O
atom 6.94464 9.55793 4.46336 O
atom -0.06616 -0.57528 2.61347 O
