lattice_vector 3.809312 0.0 -0.327913
lattice_vector 0.0 10.147 0.0
lattice_vector 0.0 0.0 13.195
atom 0.70091 0.38863 12.08302 H
atom 3.10840 5.46213 7.38156 H
atom 3.10840 9.75837 0.78406 H
atom 0.70091 4.68487 5.48552 H
atom 1.61134 0.14206 9.88290 H
atom 2.19797 5.21556 9.58169 H
atom 2.19797 10.00494 2.98419 H
atom 1.61134 4.93144 3.28540 H
atom 1.89704 8.09934 8.98743 H
atom 1.91227 3.02584 10.47715 H
atom 1.91227 2.04766 3.87966 H
atom 1.89704 7.12116 2.38993 H
atom 0.81557 9.62555 11.67136 C
atom 2.99374 4.55205 7.79322 C
atom 2.99374 0.52145 1.19572 C
atom 0.81557 5.59495 5.07386 C
atom 1.34126 9.53930 10.39594 C
atom 2.46805 4.46580 9.06864 C
atom 2.46805 0.60770 2.47114 C
atom 1.34126 5.68120 3.79844 C
atom 1.49668 8.27082 9.87469 C
atom 2.31263 3.19732 9.58990 C
atom 2.31263 1.87618 2.99240 C
atom 1.49668 6.94968 3.27719 C
atom 0.66892 7.36946 11.78005 C
atom 3.14040 2.29596 7.68454 C
atom 3.14040 2.77754 1.08704 C
atom 0.66892 7.85104 5.18255 C
atom 0.30360 6.14025 12.54448 C
atom 3.50571 1.06675 6.92011 C
atom 3.50571 4.00675 0.32261 C
atom 0.30360 9.08025 5.94698 C
atom 0.47274 8.54053 12.38570 N
atom 3.33658 3.46703 7.07889 N
atom 3.33658 1.60647 0.48139 N
atom 0.47274 6.67997 5.78820 N
atom 3.38686 6.28627 0.13742 N
atom 0.42245 1.21277 6.13216 N
atom 0.42245 3.86073 12.72966 N
atom 3.38686 8.93423 6.73492 N
atom 3.07526 5.18248 0.80988 N
atom 0.73405 0.10898 5.45971 N
atom 0.73405 4.96452 12.05721 N
atom 3.07526 10.03802 7.40738 N
atom 1.16489 7.16520 10.55746 N
atom 2.64442 2.09170 8.90713 N
atom 2.64442 2.98180 2.30963 N
atom 1.16489 8.05530 3.95996 N
