lattice_vector 5.811821 0.0 0.668134
lattice_vector 0.185727 7.545909 2.075718
lattice_vector 0.0 0.0 13.0761
atom 3.06555 2.02306 13.35295 H
atom 2.93200 5.52285 2.46700 H
atom 1.40181 3.25832 12.28975 H
atom 4.59574 4.28759 3.53020 H
atom 0.96316 2.93385 10.01697 H
atom 5.03439 4.61206 5.80298 H
atom 2.23412 1.39524 8.79879 H
atom 3.76343 6.15067 7.02116 H
atom 3.89134 0.13130 9.85605 H
atom 2.10621 7.41461 5.96390 H
atom 3.78740 5.70773 13.10009 H
atom 2.21015 1.83818 2.71986 H
atom 4.87463 4.61508 13.51472 H
atom 1.12291 2.93083 2.30523 H
atom 1.27267 6.48873 11.45841 H
atom 4.72488 1.05718 4.36154 H
atom 2.05687 6.49627 9.26622 H
atom 3.94068 1.04964 6.55373 H
atom 0.78053 5.54926 7.55275 H
atom 5.21701 1.99665 8.26720 H
atom 4.53013 4.57358 8.72504 H
atom 1.46741 2.97233 7.09491 H
atom 3.73003 4.58112 10.91166 H
atom 2.26752 2.96479 4.90829 H
atom 3.62465 0.91351 11.72346 C
atom 2.37290 6.63240 4.09649 C
atom 2.88762 1.87795 12.43088 C
atom 3.10993 5.66796 3.38907 C
atom 1.90333 2.61918 11.79642 C
atom 4.09422 4.92672 4.02353 C
atom 1.64652 2.43356 10.44732 C
atom 4.35102 5.11235 5.37263 C
atom 2.39564 1.51145 9.72797 C
atom 3.60191 6.03446 6.09198 C
atom 3.38191 0.75610 10.35817 C
atom 2.61564 6.78981 5.46178 C
atom 4.65165 0.16012 12.43955 C
atom 1.34589 7.38578 3.38040 C
atom 5.32477 0.49486 13.59531 C
atom 0.67278 7.05105 2.22464 C
atom 5.40979 1.51703 1.54712 C
atom 0.58776 6.02888 14.27284 C
atom 4.75934 5.52700 13.14772 C
atom 1.23821 2.01891 2.67224 C
atom 5.32256 5.55281 11.74124 C
atom 0.67499 1.99310 4.07872 C
atom 0.74428 6.10690 10.76806 C
atom 5.25327 1.43900 5.05190 C
atom 1.21329 6.10690 9.46415 C
atom 4.78426 1.43900 6.35580 C
atom 0.46015 5.54322 8.44778 C
atom 5.53739 2.00268 7.37217 C
atom 5.04729 4.97124 9.41620 C
atom 0.95025 2.57466 6.40376 C
atom 4.57256 4.97502 10.71616 C
atom 1.42499 2.57089 5.10380 C
atom 5.36522 6.48307 14.07981 N
atom 0.63233 1.06284 1.74014 N
atom 4.79534 2.55286 1.75495 O
atom 1.20221 4.99305 14.06500 O
