lattice_vector 8.333907 0.0 0.874855
lattice_vector 2.553274 10.119145 1.561037
lattice_vector 0.0 0.0 13.0609
atom 2.80202 2.50752 9.23736 H
atom 8.08516 7.61162 6.25944 H
atom 3.48864 4.71350 9.63180 H
atom 7.39854 5.40565 5.86499 H
atom 2.01655 6.19191 10.70843 H
atom 8.87064 3.92724 4.78836 H
atom 8.25968 5.41981 12.21598 H
atom 2.62751 4.69933 3.28081 H
atom 2.74607 0.13560 7.10379 H
atom 8.14111 9.98355 8.39300 H
atom 6.05005 9.29949 6.64808 H
atom 4.83713 0.81965 8.84872 H
atom 4.93901 7.41632 5.80887 H
atom 5.94818 2.70282 9.68792 H
atom 3.14444 6.55316 6.98476 H
atom 7.74274 3.56599 8.51203 H
atom 5.06683 1.10906 11.76884 H
atom 5.82035 9.01009 3.72795 H
atom 5.97925 3.19259 12.36464 H
atom 4.90793 6.92655 3.13215 H
atom 4.57575 4.78433 13.38329 H
atom 6.31143 5.33481 2.11350 H
atom 2.38496 4.20046 0.81843 H
atom 8.50223 5.91869 14.67836 H
atom 4.66907 6.33661 10.90872 H
atom 6.21811 3.78254 4.58807 H
atom 5.83201 5.35708 9.13458 H
atom 5.05517 4.76207 6.36221 H
atom 7.94830 6.13119 8.55184 H
atom 2.93888 3.98796 6.94495 H
atom 8.91002 7.85853 9.78255 H
atom 1.97716 2.26062 5.71424 H
atom 0.52246 1.32217 9.92464 C
atom 10.36472 8.79698 5.57215 C
atom 3.23141 9.52829 10.19743 C
atom 7.65577 0.59086 5.29937 C
atom 0.97195 2.73237 10.11571 C
atom 9.91523 7.38677 5.38108 C
atom 2.22948 3.12186 9.68128 C
atom 8.65770 6.99729 5.81552 C
atom 2.62805 4.42075 9.90816 C
atom 8.25913 5.69839 5.58864 C
atom 1.76605 5.29160 10.53993 C
atom 9.12113 4.82754 4.95686 C
atom 8.85952 4.81459 11.79464 C
atom 2.02767 5.30456 3.70215 C
atom 3.77452 8.92478 8.93863 C
atom 7.11267 1.19436 6.55816 C
atom 4.86467 9.49317 8.29803 C
atom 6.02252 0.62597 7.19877 C
atom 5.30885 8.92832 7.11176 C
atom 5.57833 1.19082 8.38504 C
atom 4.65847 7.82382 6.61984 C
atom 6.22871 2.29533 8.87695 C
atom 3.58766 7.31887 7.33066 C
atom 7.29952 2.80027 8.16613 C
atom 2.58831 0.19439 12.11457 C
atom 8.29887 9.92476 3.38222 C
atom 5.35306 8.41093 12.38109 C
atom 5.53412 1.70821 3.11570 C
atom 3.20631 1.49723 12.51336 C
atom 7.68087 8.62192 2.98343 C
atom 4.53322 1.76205 12.20624 C
atom 6.35396 8.35710 3.29055 C
atom 5.06838 2.99122 12.54748 C
atom 5.81880 7.12793 2.94931 C
atom 4.24949 3.92066 13.16110 C
atom 6.63769 6.19848 2.33569 C
atom 2.93775 3.56072 13.44590 C
atom 7.94943 6.55842 2.05089 C
atom 6.12904 7.69885 11.31128 C
atom 4.75814 2.42030 4.18551 C
atom 5.52919 6.65061 10.65554 C
atom 5.35799 3.46854 4.84126 C
atom 6.22232 6.07493 9.61901 C
atom 4.66486 4.04422 5.87778 C
atom 7.47516 6.52513 9.27543 C
atom 3.41202 3.59402 6.22136 C
atom 8.03482 7.56072 10.00070 C
atom 2.85236 2.55842 5.49610 C
atom 9.97561 9.47638 13.04298 S
atom 0.91157 0.64277 2.45382 S
atom 3.32643 8.54936 13.90642 S
atom 7.56075 1.56978 1.59038 S
atom 1.15702 0.62799 8.95525 N
atom 9.73016 9.49115 6.54154 N
atom 7.86444 0.92803 11.58487 N
atom 3.02274 9.19112 3.91192 N
atom 2.30953 8.81691 10.83076 N
atom 8.57765 1.30223 4.66603 N
atom 8.45089 3.56143 11.60873 N
atom 2.43629 6.55771 3.88806 N
atom 3.13532 7.84213 8.47537 N
atom 7.75186 2.27701 7.02143 N
atom 5.80780 9.63150 12.72023 N
atom 5.07938 0.48764 2.77656 N
atom 4.01836 9.98962 14.29369 N
atom 6.86882 0.12953 1.20310 N
atom 4.29864 7.76351 12.85143 N
atom 6.58854 2.35564 2.64536 N
atom 2.40586 2.37557 13.14995 N
atom 8.48132 7.74357 2.34685 N
atom 7.36478 8.16453 11.01934 N
atom 3.52240 1.95461 4.47745 N
