lattice_vector 7.29619 0.0 1.327653
lattice_vector 3.200996 7.065781 2.114229
lattice_vector 0.0 0.0 12.085
atom 4.37111 2.86023 8.50451 H
atom 6.12608 4.20555 7.02238 H
atom 3.50894 0.70587 8.44133 H
atom 6.98824 6.35991 7.08555 H
atom 5.78568 6.82342 12.46347 H
atom 4.71150 0.24236 3.06342 H
atom 2.60720 0.94116 12.35740 H
atom 7.88998 6.12462 3.16949 H
atom 4.19136 5.90841 2.05321 H
atom 6.30582 1.15737 13.47367 H
atom 0.95243 0.07631 1.88175 H
atom 9.54475 6.98947 13.64513 H
atom 3.35745 6.23061 5.94003 H
atom 7.13974 0.83518 9.58686 H
atom 2.55492 4.06777 5.99705 H
atom 7.94226 2.99801 9.52983 H
atom 1.33613 0.80409 5.66958 H
atom 9.16106 6.26169 9.85730 H
atom 8.28036 2.31899 7.19272 H
atom 2.21682 4.74679 8.33416 H
atom 2.42734 1.80036 6.19289 H
atom 8.06984 5.26542 9.33399 H
atom 4.02016 2.46242 9.26924 C
atom 6.47703 4.60336 6.25764 C
atom 3.49815 1.18776 9.23631 C
atom 6.99903 5.87802 6.29058 C
atom 2.95167 0.61119 10.38594 C
atom 7.54552 6.45459 5.14094 C
atom 2.95725 1.31282 11.57958 C
atom 7.53993 5.75296 3.94731 C
atom 3.50302 2.58678 11.57559 C
atom 6.99417 4.47900 3.95129 C
atom 3.68184 3.61768 12.62319 C
atom 6.81534 3.44810 2.90370 C
atom 3.35336 4.21968 2.82652 C
atom 7.14382 2.84610 12.70037 C
atom 3.85130 5.53463 2.83359 C
atom 6.64589 1.53115 12.69329 C
atom 3.83553 6.26805 3.99761 C
atom 6.66165 0.79773 11.52927 C
atom 3.35389 5.72187 5.16079 C
atom 7.14330 1.34391 10.36609 C
atom 2.86401 4.42954 5.19755 C
atom 7.63318 2.63624 10.32934 C
atom 2.83664 3.66855 4.01487 C
atom 7.66054 3.39723 11.51201 C
atom 1.67229 1.70073 5.60851 C
atom 8.82490 5.36505 9.91838 C
atom 4.48829 4.51362 10.75865 C
atom 6.00890 2.55216 4.76824 C
atom 2.17707 2.03579 3.91795 S
atom 8.32012 5.02999 11.60893 S
atom 5.10256 5.43712 9.53522 S
atom 5.39462 1.62866 5.99166 S
atom 4.00392 3.11106 10.44863 N
atom 6.49326 3.95472 5.07825 N
atom 3.26955 3.35342 1.72797 N
atom 7.22764 3.71236 13.79891 N
atom 4.29123 4.71641 12.04534 N
atom 6.20596 2.34937 3.48154 N
