lattice_vector 10.088322 0.0 -1.535442
lattice_vector 0.0 4.3265 0.0
lattice_vector 0.0 0.0 15.5492
atom 9.59198 1.52596 1.83187 H
atom 0.49635 3.68921 4.40729 H
atom 0.49635 2.80054 12.18189 H
atom 9.59198 0.63729 9.60647 H
atom 7.98894 2.97057 1.09469 H
atom 2.09938 0.80732 5.14446 H
atom 2.09938 1.35593 12.91906 H
atom 7.98894 3.51918 8.86929 H
atom 3.39876 3.90337 3.48974 H
atom 6.68957 1.74012 2.74942 H
atom 6.68957 0.42313 10.52402 H
atom 3.39876 2.58638 11.26434 H
atom 4.21288 2.58854 3.07972 H
atom 5.87544 0.42529 3.15944 H
atom 5.87544 1.73796 10.93404 H
atom 4.21288 3.90121 10.85432 H
atom 2.61388 2.55653 3.12717 H
atom 7.47444 0.39328 3.11199 H
atom 7.47444 1.76997 10.88659 H
atom 2.61388 3.93322 10.90177 H
atom 4.10292 3.05105 -0.27150 H
atom 5.98540 0.88780 6.51066 H
atom 5.98540 1.27545 14.28526 H
atom 4.10292 3.43870 7.50310 H
atom 4.73041 2.19007 0.92358 H
atom 5.35791 0.02682 5.31558 H
atom 5.35791 2.13643 13.09018 H
atom 4.73041 4.29968 8.69818 H
atom 5.17027 3.71473 0.71825 H
atom 4.91806 1.55148 5.52091 H
atom 4.91806 0.61177 13.29551 H
atom 5.17027 2.77502 8.49285 H
atom 0.52661 1.27588 1.56402 C
atom 9.56171 3.43913 4.67514 C
atom 9.56171 3.05062 12.44974 C
atom 0.52661 0.88737 9.33862 C
atom 9.59299 1.79463 0.92006 C
atom 0.49534 3.95788 5.31909 C
atom 0.49534 2.53187 13.09369 C
atom 9.59299 0.36862 8.69466 C
atom 8.64267 2.65258 0.48285 C
atom 1.44566 0.48933 5.75631 C
atom 1.44566 1.67392 13.53091 C
atom 8.64267 3.83717 8.25745 C
atom 8.59424 3.09734 -0.89303 C
atom 1.49408 0.93409 7.13219 C
atom 1.49408 1.22916 14.90679 C
atom 8.59424 3.39241 6.88157 C
atom 0.49433 1.71892 0.22782 C
atom 9.59399 3.88217 6.01134 C
atom 9.59399 2.60758 13.78594 C
atom 0.49433 0.44433 8.00242 C
atom 2.38488 0.03764 1.08543 C
atom 7.70344 2.20089 5.15373 C
atom 7.70344 4.28886 12.92833 C
atom 2.38488 2.12561 8.86003 C
atom 3.39775 3.10686 2.91924 C
atom 6.69058 0.94361 3.31992 C
atom 6.69058 1.21964 11.09452 C
atom 3.39775 3.38289 10.69384 C
atom 4.42575 3.08177 0.65384 C
atom 5.66258 0.91852 5.58532 C
atom 5.66258 1.24473 13.35992 C
atom 4.42575 3.40798 8.42844 C
atom 1.46765 0.44087 2.00467 N
atom 8.62067 2.60412 4.23449 N
atom 8.62067 3.88563 12.00909 N
atom 1.46765 1.72238 9.77927 N
atom 2.44380 0.39501 -0.22345 N
atom 7.64453 2.55826 6.46261 N
atom 7.64453 3.93149 14.23721 N
atom 2.44380 1.76824 7.55115 N
atom 3.34761 3.51009 1.52962 N
atom 6.74071 1.34684 4.70954 N
atom 6.74071 0.81641 12.48414 N
atom 3.34761 2.97966 9.30422 N
