lattice_vector 10.136 0.0 0.0
lattice_vector 1.5996755465530432 10.073779734824472 0.0
lattice_vector 2.7983982429962984 4.671404326032136 8.97056212822382
atom 2.43177 2.13049 1.47386 H
atom 12.10231 12.61469 7.49670 H
atom 4.76814 1.59694 2.15742 H
atom 9.76594 13.14824 6.81314 H
atom 7.15915 7.97576 1.59855 H
atom 7.37492 6.76942 7.37201 H
atom 5.51805 7.38544 0.30051 H
atom 9.01602 7.35975 8.67005 H
atom 6.86515 12.41950 8.70234 H
atom 7.66892 2.32569 0.26822 H
atom 4.40939 7.28217 2.52611 H
atom 10.12468 7.46302 6.44445 H
atom 3.03766 7.22041 1.70530 H
atom 11.49641 7.52477 7.26526 H
atom 3.50469 5.03330 2.07848 H
atom 11.02939 9.71188 6.89208 H
atom 3.98063 5.24804 0.56604 H
atom 10.55345 9.49714 8.40452 H
atom 6.22275 5.44891 1.29804 H
atom 8.31133 9.29628 7.67252 H
atom 5.61519 4.04149 1.75823 H
atom 8.91889 10.70370 7.21233 H
atom 5.74902 5.23913 2.81227 H
atom 8.78505 9.50605 6.15829 H
atom 8.40323 7.10631 4.50591 H
atom 6.13084 7.63888 4.46465 H
atom 8.29352 4.77010 4.43415 H
atom 6.24055 9.97508 4.53641 H
atom 9.08150 3.62422 2.55482 H
atom 5.45257 11.12097 6.41575 H
atom 10.01461 4.80981 0.77685 H
atom 4.51946 9.93538 8.19371 H
atom 10.08218 7.14431 0.81632 H
atom 4.45189 7.60088 8.15424 H
atom 11.57771 7.91353 3.39805 H
atom 2.95637 6.83166 5.57251 H
atom 3.17091 9.04542 4.47093 H
atom 11.36317 5.69976 4.49963 H
atom 13.04815 11.27456 5.11860 H
atom 1.48592 3.47063 3.85196 H
atom 11.04726 12.37830 4.63240 H
atom 3.48682 2.36688 4.33816 H
atom 9.31797 11.28359 3.52453 H
atom 5.21611 3.46159 5.44603 H
atom 10.04575 0.99148 0.30742 C
atom 4.48832 13.75371 8.66314 C
atom 2.59046 10.06388 0.32958 C
atom 11.94361 4.68131 8.64098 C
atom 3.88680 10.19353 0.82269 C
atom 10.64727 4.55165 8.14787 C
atom 2.86147 1.28832 1.38138 C
atom 11.67260 13.45687 7.58919 C
atom 4.14756 0.99256 1.76675 C
atom 10.38651 13.75262 7.20381 C
atom 5.97962 9.70721 1.47934 C
atom 8.55446 5.03797 7.49123 C
atom 7.13598 8.90535 1.79178 C
atom 7.39809 5.83983 7.17878 C
atom 4.64711 7.79625 0.53169 C
atom 9.88696 6.94894 8.43888 C
atom 4.00320 7.00345 1.66763 C
atom 10.53087 7.74174 7.30293 C
atom 4.16812 5.49457 1.50625 C
atom 10.36595 9.25061 7.46431 C
atom 5.56292 5.01332 1.87664 C
atom 8.97115 9.73187 7.09392 C
atom 9.23089 7.33901 2.65520 C
atom 5.30318 7.40617 6.31537 C
atom 8.71461 6.63730 3.74010 C
atom 5.81946 8.10789 5.23047 C
atom 8.65627 5.25219 3.70090 C
atom 5.87781 9.49300 5.26967 C
atom 9.12908 4.57268 2.58908 C
atom 5.40499 10.17251 6.38148 C
atom 9.67128 5.27912 1.52778 C
atom 4.86279 9.46606 7.44279 C
atom 9.71858 6.66428 1.55101 C
atom 4.81550 8.08090 7.41955 C
atom 10.26955 9.48313 3.35822 C
atom 4.26453 5.26205 5.61234 C
atom 11.46642 8.82433 3.64438 C
atom 3.06765 5.92085 5.32618 C
atom 12.49213 9.49819 4.28802 C
atom 2.04194 5.24700 4.68254 C
atom 12.34648 10.82047 4.66756 C
atom 2.18759 3.92471 4.30300 C
atom 11.15625 11.47036 4.37763 C
atom 3.37782 3.27483 4.59293 C
atom 10.12298 10.82001 3.72323 C
atom 4.41109 3.92517 5.24733 C
atom 4.85743 9.20148 0.89042 N
atom 9.67665 5.54371 8.08014 N
atom 8.14244 9.50500 2.34670 N
atom 6.39163 5.24018 6.62386 N
atom 9.23719 8.78383 2.70014 N
atom 5.29688 5.96136 6.27042 N
atom 9.97324 2.16067 0.66902 O
atom 4.56083 12.58452 8.30154 O
