lattice_vector 10.125 0.0 0.0
lattice_vector -2.5446726329587706 10.029209848790217 0.0
lattice_vector -0.8817848966445462 -3.112994920099107 10.726664627156325
atom 5.56008 4.07576 9.33113 H
atom 1.13846 2.84045 1.39554 H
atom 3.26019 3.57230 8.53628 H
atom 3.43835 3.34392 2.19038 H
atom 2.50110 -0.13718 9.01898 H
atom 4.19744 7.05340 1.70768 H
atom 4.02813 -0.69186 10.51213 H
atom 2.67041 7.60808 0.21453 H
atom 6.45216 2.68903 0.13408 H
atom 0.24638 4.22718 10.59258 H
atom 6.20052 -0.85924 8.66285 H
atom 0.49802 7.77545 2.06381 H
atom 4.67283 -0.94640 8.19946 H
atom 2.02571 7.86261 2.52720 H
atom 5.84256 -2.85850 9.99832 H
atom 0.85598 9.77471 0.72834 H
atom 1.83761 7.05485 9.35043 H
atom 4.86093 -0.13864 1.37623 H
atom 5.27935 6.99804 8.44725 H
atom 1.41919 -0.08182 2.27942 H
atom 6.19973 5.92389 6.62264 H
atom 0.49882 0.99233 4.10402 H
atom 4.80175 4.95846 5.03510 H
atom 1.89680 1.95776 5.69157 H
atom 2.49871 5.00990 5.34510 H
atom 4.19984 1.90631 5.38157 H
atom 1.58596 6.02495 7.20403 H
atom 5.11259 0.89127 3.52264 H
atom 1.36431 -1.11193 6.26437 H
atom 5.33424 8.02815 4.46229 H
atom -0.78236 6.60304 6.49070 H
atom 7.48090 0.31317 4.23596 H
atom -1.28798 5.53280 8.49552 H
atom 7.98652 1.38341 2.23115 H
atom -2.33764 6.69214 10.19248 H
atom 9.03619 0.22408 0.53419 H
atom -0.26414 -1.07236 9.96400 H
atom 6.96269 7.98858 0.76267 H
atom 8.30388 -0.56459 7.21905 H
atom -1.60534 7.48080 3.50762 H
atom 6.34991 0.43754 6.49607 H
atom 0.34864 6.47868 4.23060 H
atom 6.19384 2.74561 6.32551 H
atom 0.50470 4.17061 4.40115 H
atom -2.09291 4.04011 6.85863 H
atom 8.79146 2.87610 3.86804 H
atom -0.11930 3.07517 7.61593 H
atom 6.81784 3.84105 3.11073 H
atom -2.09039 2.90786 10.57006 C
atom 8.78893 4.00836 0.15661 C
atom 6.97854 1.91338 10.40272 C
atom -0.28000 5.00283 0.32395 C
atom 5.68592 2.06018 9.92109 C
atom 1.01262 4.85604 0.80557 C
atom 5.12842 3.23141 9.38261 C
atom 1.57012 3.68481 1.34405 C
atom 3.86000 2.95787 8.94282 C
atom 2.83855 3.95835 1.78384 C
atom 3.60976 1.59987 9.20562 C
atom 3.08878 5.31635 1.52104 C
atom 2.47933 0.80107 8.87202 C
atom 4.21922 6.11514 1.85464 C
atom 4.88134 -0.33948 10.15493 C
atom 1.81721 7.25569 0.57173 C
atom 5.29480 -1.14539 8.94389 C
atom 1.40375 8.06161 1.78277 C
atom 5.30725 -2.66158 9.18846 C
atom 1.39129 9.57779 1.53820 C
atom 3.33428 6.63140 8.03105 C
atom 3.36427 0.28481 2.69561 C
atom 4.70248 6.58234 7.81652 C
atom 1.99606 0.33388 2.91014 C
atom 5.25654 5.95594 6.72991 C
atom 1.44200 0.96027 3.99676 C
atom 4.43450 5.37944 5.80313 C
atom 2.26404 1.53677 4.92354 C
atom 3.06981 5.41315 5.98762 C
atom 3.62873 1.50306 4.73904 C
atom 2.52940 6.02177 7.08711 C
atom 4.16915 0.89444 3.63956 C
atom 0.54016 -0.89379 8.11150 C
atom 6.15838 7.81001 2.61516 C
atom 1.13050 -1.56781 7.06458 C
atom 5.56805 8.48403 3.66208 C
atom -1.16990 7.09244 7.20617 C
atom 7.86844 -0.17622 3.52049 C
atom -1.49009 6.45377 8.38396 C
atom 8.18863 0.46245 2.34270 C
atom -2.09902 7.14501 9.39227 C
atom 8.79756 -0.22880 1.33440 C
atom 0.17318 -1.54436 9.26462 C
atom 6.52536 8.46058 1.46204 C
atom -0.77626 1.14662 7.52583 C
atom 7.47480 5.76959 3.20084 C
atom 8.25423 0.38300 7.16434 C
atom -1.55568 6.53321 3.56233 C
atom 7.09575 0.97907 6.72776 C
atom -0.39721 5.93715 3.99890 C
atom 6.99977 2.33706 6.62050 C
atom -0.30123 4.57915 4.10617 C
atom 8.08524 3.09553 6.94444 C
atom -1.38670 3.82068 3.78222 C
atom -0.86307 2.52620 7.39604 C
atom 7.56161 4.39002 3.33063 C
atom 4.71845 1.07123 9.79344 N
atom 1.98009 5.84498 0.93322 N
atom 1.42646 1.35163 8.37109 N
atom 5.27208 5.56458 2.35558 N
atom 0.39760 0.54073 8.00316 N
atom 6.30095 6.37548 2.72350 N
atom -2.04943 4.13268 10.37912 O
atom 8.74797 2.78354 0.34754 O
