lattice_vector 6.181217 0.0 0.300149
lattice_vector 3.033236 6.041828 0.897479
lattice_vector 0.0 0.0 16.531
atom 5.70920 5.10843 6.70498 Si
atom 3.50525 0.93340 11.02365 Si
atom 1.02655 0.47126 6.66290 H
atom 8.18790 5.57057 11.06572 H
atom 4.95436 5.97658 8.73074 H
atom 4.26009 0.06525 8.99788 H
atom 3.84799 5.05822 8.10508 H
atom 5.36646 0.98361 9.62355 H
atom 7.17781 3.26802 6.70879 H
atom 2.03664 2.77380 11.01984 H
atom 5.89885 2.91699 7.54371 H
atom 3.31560 3.12483 10.18492 H
atom 7.02180 3.81421 8.16920 H
atom 2.19265 2.22762 9.55942 H
atom 3.54717 1.09780 5.07114 H
atom 5.66728 4.94403 12.65749 H
atom 7.58379 5.98262 5.63398 H
atom 1.63066 0.05921 12.09465 H
atom 4.46513 0.50691 6.19620 H
atom 4.74932 5.53492 11.53242 H
atom 5.24476 5.37058 1.54309 H
atom 3.96969 0.67125 16.18554 H
atom 5.12273 5.56090 15.74274 H
atom 4.09173 0.48093 1.98589 H
atom 3.46848 4.56823 14.54233 H
atom 5.74597 1.47360 3.18629 H
atom 7.44017 3.17377 13.75203 H
atom 1.77428 2.86806 3.97660 H
atom 4.49951 5.73913 7.91875 C
atom 4.71494 0.30270 9.80988 C
atom 6.55350 3.59428 7.36038 C
atom 2.66095 2.44754 10.36824 C
atom 3.96210 0.29907 5.40538 C
atom 5.25235 5.74276 12.32325 C
atom 4.79681 4.66671 5.19077 C
atom 4.41764 1.37512 12.53786 C
atom 4.11285 4.34226 4.25221 C
atom 5.10160 1.69957 13.47642 C
atom 3.31392 3.95256 3.14358 C
atom 5.90053 2.08926 14.58505 C
atom 3.58310 4.27943 1.74267 C
atom 5.63135 1.76240 15.98596 C
atom 4.54545 4.97001 1.07736 C
atom 4.66900 1.07182 16.65127 C
atom 4.47060 5.07332 16.19225 C
atom 4.74385 0.96851 1.53638 C
atom 3.47886 4.48424 15.46873 C
atom 5.73560 1.55758 2.25990 C
atom 2.46075 3.74170 16.12455 C
atom 6.75370 2.30012 1.60408 C
atom 2.54277 3.66497 0.99462 C
atom 6.67169 2.37686 16.73400 C
atom 7.55143 3.04448 15.86644 C
atom 1.66303 2.99735 1.86219 C
atom 7.04925 2.84449 14.52929 C
atom 2.16521 3.19734 3.19934 C
