lattice_vector 13.6633 0.0 0.0
lattice_vector 0.0 3.8448 0.0
lattice_vector -6.381638951324131 0.0 21.786798046866426
atom 0.29544 1.46948 14.07209 H
atom 3.79540 3.39188 18.60810 H
atom 6.98622 2.37532 7.71470 H
atom 3.48626 0.45292 3.17869 H
atom 3.98189 1.16113 11.89341 H
atom 0.10895 3.08353 20.78678 H
atom 3.29977 2.68367 9.89338 H
atom 7.17271 0.76127 1.00001 H
atom 5.72756 2.09465 13.15923 H
atom -1.63672 0.17225 19.52097 H
atom 1.55410 1.75015 8.62757 H
atom 8.91838 3.67255 2.26583 H
atom 5.30044 2.76403 15.36841 H
atom -1.20960 0.84163 17.31179 H
atom 1.98122 1.08077 6.41839 H
atom 8.49126 3.00317 4.47501 H
atom 3.15546 2.58025 16.20284 H
atom 0.93538 0.65785 16.47736 H
atom 4.12620 1.26455 5.58396 H
atom 6.34628 3.18695 5.30944 H
atom 10.13456 1.16459 11.89777 H
atom -6.04372 3.08699 20.78243 H
atom -2.85290 2.68021 9.88903 H
atom 13.32538 0.75781 1.00437 H
atom 8.38317 2.13348 13.13308 H
atom -4.29233 0.21108 19.54712 H
atom -1.10151 1.71132 8.65372 H
atom 11.57399 3.63372 2.23968 H
atom 8.81229 2.87976 15.32048 H
atom -4.72145 0.95736 17.35972 H
atom -1.53063 0.96504 6.46632 H
atom 12.00311 2.88744 4.42708 H
atom -2.71765 2.70251 16.17234 H
atom 6.80850 0.78011 16.50786 H
atom 9.99932 1.14229 5.61446 H
atom 0.47316 3.06469 5.27894 H
atom 1.42797 0.81971 12.61870 C
atom 2.66288 2.74211 20.06150 C
atom 5.85369 3.02509 9.16810 C
atom 4.61879 1.10269 1.72530 C
atom -0.98099 0.82894 12.62937 C
atom 5.07184 2.75134 20.05083 C
atom 8.26266 3.01586 9.15743 C
atom 2.20982 1.09346 1.73597 C
atom 2.57899 1.38528 13.36075 C
atom 1.51185 3.30768 19.31944 C
atom 4.70267 2.45952 8.42604 C
atom 5.76981 0.53712 2.46735 C
atom 3.83196 1.46641 12.78123 C
atom 0.25888 3.38881 19.89897 C
atom 3.44970 2.37839 9.00557 C
atom 7.02278 0.45599 1.88783 C
atom 4.85715 2.00429 13.53026 C
atom -0.76631 0.08189 19.14994 C
atom 2.42451 1.84051 8.25654 C
atom 8.04797 3.76291 2.63686 C
atom 4.60480 2.41031 14.82701 C
atom -0.51396 0.48791 17.85319 C
atom 2.67686 1.43449 6.95979 C
atom 7.79562 3.35689 3.93361 C
atom 3.32568 2.29112 15.31525 C
atom 0.76516 0.36872 17.36495 C
atom 3.95598 1.55368 6.47155 C
atom 6.51650 3.47608 4.42185 C
atom -2.12902 1.41758 13.36838 C
atom 6.21987 3.33998 19.31182 C
atom 9.41068 2.42722 8.41842 C
atom 1.06180 0.50482 2.47498 C
atom -3.38246 1.49140 12.77818 C
atom 7.47330 3.41380 19.90202 C
atom 10.66412 2.35340 9.00862 C
atom -0.19164 0.43100 1.88478 C
atom 9.25266 2.05389 13.50825 C
atom -5.16182 0.13149 19.17195 C
atom -1.97100 1.79091 8.27855 C
atom 12.44348 3.71331 2.61485 C
atom -4.15733 2.50066 14.79432 C
atom 8.24817 0.57826 17.88587 C
atom 11.43899 1.34414 6.99247 C
atom -0.96651 3.26654 3.90093 C
atom -2.88510 2.38454 15.29237 C
atom 6.97594 0.46214 17.38783 C
atom 10.16676 1.46026 6.49443 C
atom 0.30572 3.38266 4.39897 C
atom 0.20758 3.60165 10.65527 S
atom 10.26490 1.67925 0.23813 S
atom 7.07408 0.24315 11.13153 S
atom -2.98323 2.16555 21.54867 S
atom 1.57533 0.39294 11.42151 N
atom 2.51551 2.31534 21.25869 N
atom 5.70633 3.45186 10.36529 N
atom 4.76615 1.52946 0.52811 N
atom 0.22336 0.78857 13.32415 N
atom 3.86748 2.71097 19.35604 N
atom 7.05830 3.05623 8.46265 N
atom 3.41418 1.13383 2.43075 N
atom -1.14847 0.40217 11.43698 N
atom 5.23932 2.32457 21.24322 N
atom 8.43013 3.44263 10.34982 N
atom 2.04235 1.52023 0.54358 N
atom 2.30908 1.79014 14.60500 N
atom 1.78176 3.71254 18.07520 N
atom 4.97258 2.05466 7.18180 N
atom 5.49990 0.13226 3.71160 N
atom -1.85964 1.84627 14.60609 N
atom 5.95048 3.76867 18.07411 N
atom 9.14130 1.99853 7.18071 N
atom 1.33118 0.07613 3.71269 N
