lattice_vector 12.959299 0.0 -0.474969
lattice_vector 0.0 5.596 0.0
lattice_vector 0.0 0.0 6.813
atom 12.56922 5.44771 5.03469 H
atom 0.39007 2.64971 4.70984 H
atom 0.39007 0.14829 1.30334 H
atom 12.56922 2.94629 1.62819 H
atom 9.52120 1.87298 3.58623 H
atom 3.43810 4.67098 6.15830 H
atom 3.43810 3.72302 2.75180 H
atom 9.52120 0.92502 0.17973 H
atom 11.22534 3.59151 5.27199 H
atom 1.73395 0.79351 4.47254 H
atom 1.73395 2.00449 1.06604 H
atom 11.22534 4.80249 1.86549 H
atom 11.65715 5.50311 4.77298 C
atom 1.30215 2.70511 4.97155 C
atom 1.30215 0.09289 1.56505 C
atom 11.65715 2.89089 1.36648 C
atom 9.90129 1.07163 3.92582 C
atom 3.05801 3.86963 5.81871 C
atom 3.05801 4.52437 2.41221 C
atom 9.90129 1.72637 0.51932 C
atom 9.09821 5.52851 4.03504 C
atom 3.86109 2.73051 5.70949 C
atom 3.86109 0.06749 2.30299 C
atom 9.09821 2.86549 0.62854 C
atom 10.85095 4.38391 4.90609 C
atom 2.10835 1.58591 4.83844 C
atom 2.10835 1.21209 1.43194 C
atom 10.85095 4.01009 1.49959 C
atom 7.68759 5.55476 3.57781 C
atom 5.27171 2.75676 6.16672 C
atom 5.27171 0.04124 2.76022 C
atom 7.68759 2.83924 0.17131 C
atom 11.18893 1.06520 4.28571 N
atom 1.77037 3.86320 5.45882 N
atom 1.77037 4.53080 2.05232 N
atom 11.18893 1.73280 0.87921 N
atom 9.56383 4.37831 4.53828 N
atom 3.39547 1.58031 5.20625 N
atom 3.39547 1.21769 1.79975 N
atom 9.56383 4.01569 1.13178 N
atom 7.35635 0.93800 2.72095 N
atom 5.60295 3.73600 0.21058 N
atom 5.60295 4.65800 3.61708 N
atom 7.35635 1.86000 6.12745 N
atom 6.10435 0.98501 2.29238 N
atom 6.85495 3.78301 0.63915 N
atom 6.85495 4.61099 4.04565 N
atom 6.10435 1.81299 5.69888 N
