lattice_vector 5.071023 0.0 -0.365809
lattice_vector 0.0 5.4202 0.0
lattice_vector 0.0 0.0 18.831
atom 1.86360 3.85756 2.88606 H
atom 3.20742 1.14746 6.16363 H
atom 3.20742 1.56264 15.57913 H
atom 1.86360 4.27274 12.30156 H
atom 2.70336 0.42440 0.91978 H
atom 2.36766 3.13450 8.12991 H
atom 2.36766 4.99580 17.54541 H
atom 2.70336 2.28570 10.33528 H
atom 4.52538 0.12846 2.35697 H
atom 0.54564 2.83856 6.69272 H
atom 0.54564 5.29174 16.10822 H
atom 4.52538 2.58164 11.77247 H
atom 4.94729 1.71062 3.99308 H
atom 0.12373 4.42072 5.05661 H
atom 0.12373 3.70958 14.47211 H
atom 4.94729 0.99948 13.40858 H
atom 2.41482 3.09277 2.76720 C
atom 2.65620 0.38267 6.28249 C
atom 2.65620 2.32743 15.69799 C
atom 2.41482 5.03753 12.18270 C
atom 2.09433 2.20711 1.73070 C
atom 2.97669 4.91721 7.31899 C
atom 2.97669 3.21309 16.73449 C
atom 2.09433 0.50299 11.14620 C
atom 2.89505 1.06778 1.59216 C
atom 2.17598 3.77788 7.45753 C
atom 2.17598 4.35242 16.87304 C
atom 2.89505 1.64232 11.00766 C
atom 3.96250 0.88945 2.44070 C
atom 1.10853 3.59955 6.60899 C
atom 1.10853 4.53075 16.02449 C
atom 3.96250 1.82065 11.85620 C
atom 4.20236 1.83907 3.41692 C
atom 0.86867 4.54917 5.63277 C
atom 0.86867 3.58113 15.04827 C
atom 4.20236 0.87103 12.83242 C
atom 0.97820 2.47812 0.81449 C
atom 4.09282 5.18822 8.23520 C
atom 4.09282 2.94208 17.65070 C
atom 0.97820 0.23198 10.22999 C
atom 3.44475 2.93016 3.59887 N
atom 1.62628 0.22006 5.45082 N
atom 1.62628 2.49004 14.86632 N
atom 3.44475 5.20014 13.01437 N
atom 0.24442 3.59088 1.01299 N
atom 4.82660 0.88078 8.03670 N
atom 4.82660 1.82932 17.45220 N
atom 0.24442 4.53942 10.42849 N
atom 4.31088 3.82775 -0.18255 N
atom 0.76015 1.11765 9.23224 N
atom 0.76015 1.59245 18.64774 N
atom 4.31088 4.30255 9.23295 N
