lattice_vector 8.2371 0.0 0.0
lattice_vector 0.9568085811331607 8.794705731237968 0.0
lattice_vector 3.8040740646297495 -0.3597278429211487 10.58440481982046
atom 9.40807 2.23873 9.53443 H
atom 3.58991 6.19624 1.04997 H
atom 5.21310 3.19925 2.41430 H
atom 7.78488 5.23573 8.17010 H
atom 6.05813 4.92745 3.62939 H
atom 6.93985 3.50753 6.95501 H
atom 7.92402 6.29840 0.34717 H
atom 5.07396 2.13658 10.23724 H
atom 4.11048 5.29870 8.77553 H
atom 8.88751 3.13628 1.80887 H
atom 10.99488 6.10378 8.71308 H
atom 2.00310 2.33120 1.87132 H
atom 10.34355 4.90268 6.81636 H
atom 2.65444 3.53229 3.76805 H
atom 3.41132 4.03364 6.89786 H
atom 9.58666 4.40134 3.68655 H
atom 4.71406 5.95052 6.44273 H
atom 8.28392 2.48446 4.14168 H
atom 3.40928 6.81535 6.35594 H
atom 9.58871 1.61963 4.22847 H
atom 3.69179 5.71309 5.27738 H
atom 9.30619 2.72189 5.30702 H
atom 6.36082 6.90862 4.28457 H
atom 6.63716 1.52636 6.29984 H
atom 7.39078 8.08468 4.33008 H
atom 5.60720 0.35030 6.25432 H
atom 8.86798 6.10150 5.00219 H
atom 4.13001 2.33348 5.58222 H
atom 7.49943 5.71847 5.66266 H
atom 5.49856 2.71651 4.92175 H
atom 8.19761 7.07254 6.03417 H
atom 4.80037 1.36244 4.55024 H
atom 9.52459 7.73772 3.10123 H
atom 3.47339 0.69726 7.48317 H
atom 9.40346 7.00549 1.71891 H
atom 3.59452 1.42949 8.86550 H
atom 6.99393 0.51868 2.33492 H
atom 6.00405 7.91629 8.24949 H
atom 8.01205 8.62779 0.92614 H
atom 4.98593 -0.19281 9.65827 H
atom 8.32603 0.54235 1.50934 H
atom 4.67195 7.89263 9.07507 H
atom 8.46943 0.08510 8.85597 C
atom 4.52855 8.34987 1.72843 C
atom 8.23059 0.17571 10.27852 C
atom 4.76739 8.25927 0.30589 C
atom 9.28500 2.24786 10.45633 C
atom 3.71298 6.18712 0.12807 C
atom 6.00023 3.69066 0.63506 C
atom 6.99775 4.74432 9.94934 C
atom 5.75282 3.82663 1.99093 C
atom 7.24516 4.60835 8.59348 C
atom 6.27664 4.85428 2.72866 C
atom 6.72134 3.58069 7.85575 C
atom 7.13889 5.80367 2.14652 C
atom 5.85910 2.63131 8.43789 C
atom 7.36758 5.68341 0.76843 C
atom 5.63040 2.75157 9.81598 C
atom 6.79219 4.67898 0.02011 C
atom 6.20579 3.75600 10.56429 C
atom 11.41263 5.24925 8.52256 C
atom 1.58535 3.18572 2.06184 C
atom 11.28135 4.91629 7.06297 C
atom 1.71664 3.51869 3.52143 C
atom 3.78346 5.94454 6.20458 C
atom 9.21452 2.49044 4.37983 C
atom 7.30348 7.12562 4.21365 C
atom 5.69451 1.30936 6.37075 C
atom 8.03259 6.44309 5.32819 C
atom 4.96540 1.99189 5.25622 C
atom 8.92274 7.54549 2.36561 C
atom 4.07524 0.88949 8.21879 C
atom 7.54816 0.02396 1.72737 C
atom 5.44982 8.41102 8.85703 C
atom 8.73790 0.11408 7.74461 N
atom 4.26008 8.32090 2.83980 N
atom 4.83184 1.62063 0.44666 N
atom 8.16615 6.81434 10.13774 N
atom 7.75632 6.78067 2.87367 N
atom 5.24166 1.65430 7.71074 N
atom 10.74839 4.19021 9.25183 O
atom 2.24960 4.24477 1.33258 O
