lattice_vector 7.225964 0.0 -0.022701
lattice_vector -1.464392 21.744933 -2.002604
lattice_vector 0.0 0.0 6.793
atom 1.05394 20.83165 -0.49968 H
atom 4.70763 0.91329 5.26738 H
atom 1.01946 0.95678 1.87845 H
atom 4.74211 20.78816 2.88924 H
atom 0.95772 18.50494 -0.55633 H
atom 4.80385 3.24000 5.32402 H
atom 0.93660 16.24347 -1.23060 H
atom 4.82498 5.50147 5.99830 H
atom 4.94818 16.54789 4.57067 H
atom 0.81339 5.19704 0.19702 H
atom 5.01989 18.80937 -1.68407 H
atom 0.74168 2.93557 6.45177 H
atom 1.49638 14.04723 -0.68999 H
atom 4.26519 7.69771 5.45768 H
atom 1.52583 11.78575 5.63237 H
atom 4.23574 9.95918 -0.86468 H
atom 2.85462 11.04643 3.72647 H
atom 2.90695 10.69851 1.04122 H
atom 4.40823 12.65555 2.62204 H
atom 1.35335 9.08938 2.14566 H
atom 4.29215 14.80830 3.17092 H
atom 1.46942 6.93663 1.59678 H
atom 1.15210 2.95731 3.11990 H
atom 4.60947 18.78762 1.64779 H
atom 1.05898 5.30576 3.65065 H
atom 4.70259 16.43917 1.11705 H
atom 4.34650 5.63194 2.45540 H
atom 1.41507 16.11300 2.31230 H
atom 4.29071 3.34872 1.91910 H
atom 1.47086 18.39621 2.84859 H
atom 0.38269 6.87140 5.13857 H
atom 5.37888 14.87353 -0.37088 H
atom 0.49639 9.04589 5.75265 H
atom 5.26519 12.69904 -0.98496 H
atom 6.42297 10.85072 4.20884 H
atom -0.66140 10.89421 0.55886 H
atom 5.14465 10.08965 2.58485 H
atom 0.61692 11.65528 2.18284 H
atom 5.18289 7.69771 1.92244 H
atom 0.57868 14.04723 2.84526 H
atom 5.59225 21.19044 -0.51242 C
atom 0.16932 0.55450 5.28011 C
atom 4.15259 21.15130 -0.53621 C
atom 1.60899 0.59364 5.30390 C
atom 3.07334 20.29889 -0.69664 C
atom 2.68823 1.44604 5.46434 C
atom 3.01000 18.87895 -1.04156 C
atom 2.75157 2.86598 5.80926 C
atom 1.84135 18.13092 -0.86695 C
atom 3.92022 3.61401 5.63464 C
atom 1.81986 16.77622 -1.21327 C
atom 3.94171 4.96872 5.98096 C
atom 2.94305 16.13909 5.05557 C
atom 2.81852 5.60584 -0.28788 C
atom 4.11645 16.90234 4.88905 C
atom 1.64512 4.84260 -0.12135 C
atom 4.15110 18.25487 -1.54932 C
atom 1.61048 3.49006 6.31702 C
atom 2.92524 14.70827 4.68502 C
atom 2.83634 7.03666 0.08267 C
atom 2.14637 13.78411 5.39162 C
atom 3.61520 7.96082 -0.62392 C
atom 2.13816 12.44680 5.05316 C
atom 3.62342 9.29813 -0.28547 C
atom 2.90683 11.98798 3.99263 C
atom 2.85475 9.75695 0.77506 C
atom 3.67011 12.88605 3.27559 C
atom 2.09147 8.85889 1.49211 C
atom 3.68091 14.23858 3.61942 C
atom 2.08066 7.50635 1.14827 C
atom 3.70145 0.62843 1.84395 C
atom 2.06012 21.11650 2.92374 C
atom 5.13734 0.69149 1.79762 C
atom 0.62423 21.05344 2.97008 C
atom 6.22455 1.52215 2.04563 C
atom -0.46297 20.22279 2.72207 C
atom 6.27317 2.92469 2.41394 C
atom -0.51160 18.82024 2.35376 C
atom 0.22973 3.49876 2.93220 C
atom 5.53184 18.24617 1.83549 C
atom 0.27349 4.84477 3.28197 C
atom 5.48808 16.90016 1.48572 C
atom 6.36671 5.66673 3.09661 C
atom -0.60514 16.07820 1.67108 C
atom 5.20182 5.07744 2.61258 C
atom 0.55975 16.66749 2.15511 C
atom 5.14693 3.73578 2.27196 C
atom 0.61464 18.00915 2.49574 C
atom 6.42021 7.10407 3.48003 C
atom -0.65864 14.64086 1.28766 C
atom -0.00044 7.53897 4.54830 C
atom 5.76201 14.20597 0.21940 C
atom 0.04432 8.89150 4.89882 C
atom 5.71725 12.85343 -0.13113 C
atom 6.50684 9.82001 4.18144 C
atom -0.74526 11.92492 0.58625 C
atom 5.71801 9.37642 3.12440 C
atom 0.04356 12.36852 1.64330 C
atom 5.66310 8.05650 2.77769 C
atom 0.09847 13.68844 1.99000 C
atom 1.93431 21.04257 -0.45806 N
atom 3.82726 0.70236 5.22576 N
atom 0.12608 0.75672 1.90652 N
atom 5.63550 20.98821 2.86118 N
atom -0.76468 20.32499 -0.69039 O
atom 6.52625 1.41994 5.45809 O
atom 2.82361 1.48518 2.07874 O
atom 2.93796 20.25975 2.68895 O
